
                                 *****************
                                 * O   R   C   A *
                                 *****************

                                            #,                                       
                                            ###                                      
                                            ####                                     
                                            #####                                    
                                            ######                                   
                                           ########,                                 
                                     ,,################,,,,,                         
                               ,,#################################,,                 
                          ,,##########################################,,             
                       ,#########################################, ''#####,          
                    ,#############################################,,   '####,        
                  ,##################################################,,,,####,       
                ,###########''''           ''''###############################       
              ,#####''   ,,,,##########,,,,          '''####'''          '####       
            ,##' ,,,,###########################,,,                        '##       
           ' ,,###''''                  '''############,,,                           
         ,,##''                                '''############,,,,        ,,,,,,###''
      ,#''                                            '''#######################'''  
     '                                                          ''''####''''         
             ,#######,   #######,   ,#######,      ##                                
            ,#'     '#,  ##    ##  ,#'     '#,    #''#        ,####,    ,#,          
            ##       ##  ##   ,#'  ##            #'  '#       #'       ,# #          
            ##       ##  #######   ##           ,######,      #####,      #          
            '#,     ,#'  ##    ##  '#,     ,#' ,#      #,     #,   #      #          
             '#######'   ##     ##  '#######'  #'      '#     '####' #    #          



                #########################################################
                #                        -***-                          #
                #          Department of theory and spectroscopy        #
                #                                                       #
                #                      Frank Neese                      #
                #                                                       #
                #     Directorship, Architecture, Infrastructure        #
                #                    SHARK, DRIVERS                     #
                #        Core code/Algorithms in most modules           #
                #                                                       #
                #        Max Planck Institute fuer Kohlenforschung      #
                #                Kaiser Wilhelm Platz 1                 #
                #                 D-45470 Muelheim/Ruhr                 #
                #                      Germany                          #
                #                                                       #
                #                  All rights reserved                  #
                #                        -***-                          #
                #########################################################


                         Program Version 6.1.1  -  RELEASE   -


 With contributions from (in alphabetic order):
[Max-Planck-Institut fuer Kohlenforschung]                               
  Daniel Aravena         : Magnetic Suceptibility                        
  Michael Atanasov       : Ab Initio Ligand Field Theory (pilot matlab implementation)
  Alexander A. Auer      : GIAO ZORA, VPT2 properties, NMR spectrum      
  Ute Becker             : All parallelization in ORCA, NUMFREQ, NUMCALC 
  Giovanni Bistoni       : ED, misc. LED, open-shell LED, HFLD           
  Dmytro Bykov           : pre 5.0 version of the SCF Hessian            
  Marcos Casanova-Páez   : Triplet and SCS-CIS(D). UHF-(DLPNO)-IP/EA/STEOM-CCSD. UHF-CVS-IP/STEOM-CCSD   
  Vijay G. Chilkuri      : MRCI spin determinant printing, contributions to CSF-ICE 
  Pauline Colinet        : FMM embedding                                 
  Dipayan Datta          : RHF DLPNO-CCSD density                        
  Achintya Kumar Dutta   : EOM-CC, STEOM-CC                              
  Nicolas Foglia         : Exact transition moments, OPA infrastructure, MCD improvements    
  Dmitry Ganyushin       : Spin-Orbit,Spin-Spin,Magnetic field MRCI      
  Miquel Garcia-Rates    : C-PCM and meta-GGA Hessian, CCSD/C-PCM, Gaussian charge scheme 
  Tiago L. C. Gouveia    : GS-ROHF, GS-ROCIS                             
  Yang Guo               : DLPNO-NEVPT2, F12-NEVPT2, CIM, IAO-localization        
  Andreas Hansen         : Spin unrestricted coupled pair/coupled cluster methods 
  Ingolf Harden          : AUTO-CI MPn and infrastructure                
  Benjamin Helmich-Paris : MC-RPA, TRAH-(SCF,CASSCF), AVAS, COSX integrals, SCF dyn. polar., MC-PDFT, srDFT 
  Lee Huntington         : MR-EOM, pCC                                   
  Robert Izsak           : Overlap fitted RIJCOSX, COSX-SCS-MP3, EOM     
  Riya Kayal             : Wick's Theorem for AUTO-CI, AUTO-CI UHF-CCSDT 
  Emily Kempfer          : AUTO-CI RHF CISDT and CCSDT, approximate NEVPT4
  Christian Kollmar      : KDIIS, OOCD, Brueckner-CCSD(T), CCSD density, CASPT2, CASPT2-K, improved NEVPT2 
  Axel Koslowski         : Symmetry handling                             
  Simone Kossmann        : meta-GGA functionals, TD-DFT gradient, OOMP2, (MP2 Hessian; deprecated post 5.0) 
  Lucas Lang             : DCDCAS, Hyperfine gauge corrections, ICE-SOC+SSC
  Marvin Lechner         : AUTO-CI (C++ implementation), FIC-MRCC        
  Spencer Leger          : CASSCF response                               
  Dagmar Lenk            : GEPOL surface, SMD, ORCA-2-JSON               
  Dimitrios Liakos       : Extrapolation schemes; Compound Job, Property file
  Dimitrios Manganas     : Further ROCIS development; embedding schemes. LFT, Crystal Embedding 
  Dimitrios Pantazis     : SARC Basis sets                               
  Anastasios Papadopoulos: AUTO-CI, single reference methods and gradients 
  Taras Petrenko         : pre 6.0 DFT Hessian and TD-DFT gradient,  ECA, NRVS 
  Petra Pikulova         : Analytic Raman intensities                    
  Peter Pinski           : DLPNO-MP2, DLPNO-MP2 Gradient                 
  Shashank Vittal Rao    : ES-AILFT, MagRelax                            
  Christoph Reimann      : Effective Core Potentials                     
  Marius Retegan         : Local ZFS, SOC                                
  Christoph Riplinger    : Optimizer, TS searches, QM/MM, DLPNO-CCSD(T), (RO)-DLPNO pert. Triples 
  Michael Roemelt        : Original ROCIS implementation, recursive CI coupling coefficients
  Masaaki Saitow         : Open-shell DLPNO-CCSD energy and density      
  Barbara Sandhoefer     : DKH picture change effects                    
  Yorick L. A. Schmerwitz: GMF and freeze-and-release deltaSCF, NEB S-IDPP initial path                    
  Kantharuban Sivalingam : CASSCF convergence/infrastructure, NEVPT2, NEVPT3, NEVPT4(SD), FIC-MRCI and CEPA variants
  Bernardo de Souza      : ESD, SOC TD-DFT                               
  Georgi L. Stoychev     : AutoAux, RI-MP2 NMR, DLPNO-MP2 response, X2C  
  Van Anh Tran           : RI-MP2 g-tensors                              
  Willem Van den Heuvel  : Paramagnetic NMR                              
  Zikuan Wang            : NOTCH, Electric field optimization            
  Frank Wennmohs         : Technical directorship and infrastructure     
  Hang Xu                : AUTO-CI-Response properties                   
                                                                         
[FACCTs GmbH]                                                            
  Markus Bursch, Nicolas Foglia, Miquel Garcia-Rates, Ingolf Harden, Hagen Neugebauer, Anastasios Papadopoulos, 
  Christoph Riplinger, Bernardo de Souza, Georgi L. Stoychev                                                    
                                                                 
  APM, various basis sets, CI-OPT, improved COSX, DLPNO-Multilevel,           
  DOCKER, DRACO, updates on ESD, Fragmentator, GOAT, IRC, LR-CPCM, L-BFGS, MBIS, meta-GGA TD-DFT gradient, ML-optimized integration grids, 
  MM, NACMEs, nearIR, NEB, NEB-TS, NL-DFT gradient (VV10), 2- and 3-layer-ONIOM, interface openCOSMO-RS, QMMM,   
  Crystal-QMMM, RESP, rigid body optimization, SF, symmetry and pop. for TD-DFT, various functionals, SOLVATOR                                   
                                                                         
[Other institutions]                                                     
  V. Asgeirsson          : NEB                                           
  Christoph Bannwarth    : sTDA-DFT, sTD-DFT, PBEh-3c, B97-3c, D3        
  Giovanni Bistoni       : ETS/NOCV, ADLD/ADEX, COVALED                  
  Martin Brehm           : Molecular dynamics                            
  Ronald Cardenas        : ETS/NOCV                                      
  Martina Colucci        : COVALED                                       
  Sebastian Ehlert       : rSCAN, r2SCAN, r2SCAN-3c, D4, dhf basis sets  
  Marvin Friede          : D4 for Fr, Ra, Ac-Lr                          
  Lars Goerigk           : TD-DFT with DH, B97 family of functionals     
  Stefan Grimme          : VdW corrections, initial TS optimization, DFT functionals, gCP, sTDA/sTD-DF 
  Waldemar Hujo          : DFT-NL                                        
  H. Jonsson             : NEB                                           
  Holger Kruse           : gCP                                           
  Marcel Mueller         : wB97X-3c, vDZP basis set                      
  Hagen Neugebauer       : wr2SCAN, Native XTB                           
  Gianluca Regni         : ADLD/ADEX                                     
  Tobias Risthaus        : pre 6.0 range-separated hybrid DFT and stability analysis
  Lukas Wittmann         : regularized MP2, r2SCAN double-hybrids, wr2SCAN        
                                                                         
We gratefully acknowledge several colleagues who have allowed us to      
interface, adapt or use parts of their codes:                            
  Ed Valeev, F. Pavosevic, A. Kumar             : LibInt (2-el integral package), F12 methods 
  Garnet Chan, S. Sharma, J. Yang, R. Olivares  : DMRG                   
  Ulf Ekstrom                                   : XCFun DFT Library      
  Mihaly Kallay                                 : mrcc  (arbitrary order and MRCC methods)
  Frank Weinhold                                : gennbo (NPA and NBO analysis)           
  Simon Mueller                                 : openCOSMO-RS                            
  Christopher J. Cramer and Donald G. Truhlar   : smd solvation model                     
  S Lehtola, MJT Oliveira, MAL Marques          : LibXC Library                           
  Liviu Ungur et al                             : ANISO software                          


 Your calculation uses the libint2 library for the computation of 2-el integrals
 For citations please refer to: http://libint.valeyev.net

 Your ORCA version has been built with support for libXC version: 7.0.0
 For citations please refer to: https://libxc.gitlab.io

 This ORCA versions uses:
   CBLAS   interface :  Fast vector & matrix operations
   LAPACKE interface :  Fast linear algebra routines
   Shared memory     :  Shared parallel matrices


  ***********************************
  * Starting time: Thu Aug 27 20:46:22 2026
  * Host name:     MNH688
  * Process ID:    8212
  * Working dir.:  C:\Users\jabreumiranda\Radioprotection_Pipeline_Project\06_Quantum_DFT_ORCA
  ***********************************

NOTE: MaxCore=2000 MB was set to SCF,MP2,MDCI,CIPSI,MRCI,RASCI and CIS
      => If you want to overwrite this, your respective input block should be placed after the MaxCore statement
Your calculation utilizes the atom-pairwise dispersion correction
with the Becke-Johnson damping scheme (D3BJ)


================================================================================

----- Orbital basis set information -----
Your calculation utilizes the basis: def2-SVP
   F. Weigend and R. Ahlrichs, Phys. Chem. Chem. Phys. 7, 3297 (2005).

----- AuxJ basis set information -----
Your calculation utilizes the auxiliary basis: def2/J
   H-Rn: F. Weigend, Phys. Chem. Chem. Phys. 8, 1057 (2006).
   Fr-Lr: K. Eichkorn, F. Weigend, O. Treutler, R. Ahlrichs; Theor. Chem. Acc. 97, 119 (1997).

================================================================================
                                        WARNINGS
                       Please study these warnings very carefully!
================================================================================


WARNING: Geometry Optimization
  ===> : Switching off AutoStart
         For restart on a previous wavefunction, please use MOREAD

================================================================================
                                       INPUT FILE
================================================================================
NAME = C:\Users\jabreumiranda\Radioprotection_Pipeline_Project\06_Quantum_DFT_ORCA\CHEMBL4952776_neutral_opt.inp
|  1> ! B3LYP def2-SVP def2/J D3BJ Opt Freq CPCM(Water)
|  2> %maxcore 2000
|  3> 
|  4> * xyz 0 1
|  5> C      -6.6199     -0.1305     -0.6080
|  6> C      -6.4940      0.6744      0.5274
|  7> C      -5.2383      0.9949      1.0571
|  8> C      -4.1281      0.4695      0.3930
|  9> N      -2.7802      0.5697      0.6202
| 10> C      -2.1071     -0.1496     -0.3439
| 11> C      -0.6450     -0.2740     -0.4236
| 12> C      -0.0852     -1.0433     -1.4610
| 13> C       1.2984     -1.2144     -1.6111
| 14> C       2.1046     -0.5775     -0.6709
| 15> N       3.4633     -0.5190     -0.5023
| 16> C       3.7237      0.2567      0.5964
| 17> C       5.1310      0.5972      1.1614
| 18> C       6.2370     -0.4225      1.0996
| 19> C       6.2927      0.7981      0.2250
| 20> N       2.6135      0.6999      1.1436
| 21> C       1.5996      0.1914      0.3693
| 22> C       0.2107      0.3501      0.5017
| 23> N      -2.9755     -0.7029     -1.1746
| 24> C      -4.2214     -0.3320     -0.7356
| 25> C      -5.4868     -0.6432     -1.2529
| 26> H      -7.6077     -0.3636     -0.9982
| 27> H      -7.3901      1.0601      1.0097
| 28> H      -5.1413      1.6195      1.9381
| 29> H      -2.3539      1.0870      1.3724
| 30> H      -0.7480     -1.5278     -2.1795
| 31> H       1.7063     -1.8120     -2.4186
| 32> H       4.1566     -0.9664     -1.0820
| 33> H       5.0972      1.2306      2.0432
| 34> H       6.9158     -0.4746      1.9441
| 35> H       6.0472     -1.3821      0.6349
| 36> H       6.1411      0.6769     -0.8404
| 37> H       7.0093      1.5725      0.4773
| 38> H      -0.1502      0.9552      1.3225
| 39> H      -5.5754     -1.2683     -2.1341
| 40> *
| 41> 
| 42>                          ****END OF INPUT****
================================================================================

                       *****************************
                       * Geometry Optimization Run *
                       *****************************

Geometry optimization settings:
Update method            Update   .... BFGS
Choice of coordinates    CoordSys .... (2022) Redundant Internals
Initial Hessian          InHess   .... Almloef's Model
Max. no of cycles        MaxIter  .... 105

Convergence Tolerances:
Energy Change            TolE     ....  5.0000e-06 Eh
Max. Gradient            TolMAXG  ....  3.0000e-04 Eh/bohr
RMS Gradient             TolRMSG  ....  1.0000e-04 Eh/bohr
Max. Displacement        TolMAXD  ....  4.0000e-03 bohr
RMS Displacement         TolRMSD  ....  2.0000e-03 bohr
Strict Convergence                .... False

------------------------------------------------------------------------------
                        ORCA OPTIMIZATION COORDINATE SETUP
------------------------------------------------------------------------------

The optimization will be done in redundant internal coordinates (2022)
Making redundant internal coordinates   ...  (2022 redundants) done
Evaluating the initial hessian          ...  (Almloef) done
Evaluating the coordinates              ...  done
Calculating the B-matrix                .... done
Calculating the G-matrix                .... done
The number of degrees of freedom        ....  206

    -----------------------------------------------------------------
                    Redundant Internal Coordinates


    -----------------------------------------------------------------
         Definition                    Initial Value    Approx d2E/dq
    -----------------------------------------------------------------
      1. B(C   1,C   0)                  1.3974         0.607943   
      2. B(C   2,C   1)                  1.4000         0.602193   
      3. B(C   3,C   2)                  1.3963         0.610531   
      4. B(N   4,C   3)                  1.3706         0.600975   
      5. B(C   5,N   4)                  1.3784         0.583992   
      6. B(C   6,C   5)                  1.4695         0.466476   
      7. B(C   7,C   6)                  1.4076         0.585632   
      8. B(C   8,C   7)                  1.4022         0.597421   
      9. B(C   9,C   8)                  1.3927         0.618660   
     10. B(N  10,C   9)                  1.3704         0.601442   
     11. B(C  11,N  10)                  1.3699         0.602454   
     12. B(C  12,C  11)                  1.5542         0.341748   
     13. B(C  13,C  12)                  1.5056         0.408601   
     14. B(C  14,C  13)                  1.5026         0.413092   
     15. B(C  14,C  12)                  1.5056         0.408647   
     16. B(N  15,C  11)                  1.3147         0.737963   
     17. B(C  16,N  15)                  1.3734         0.594881   
     18. B(C  16,C   9)                  1.3886         0.627986   
     19. B(C  17,C  16)                  1.4042         0.593054   
     20. B(C  17,C   6)                  1.4064         0.588310   
     21. B(N  18,C   5)                  1.3230         0.715771   
     22. B(C  19,N  18)                  1.3721         0.597715   
     23. B(C  19,C   3)                  1.3874         0.630821   
     24. B(C  20,C  19)                  1.4020         0.597790   
     25. B(C  20,C   0)                  1.4010         0.600153   
     26. B(H  21,C   0)                  1.0874         0.363616   
     27. B(H  22,C   1)                  1.0883         0.362371   
     28. B(H  23,C   2)                  1.0843         0.367727   
     29. B(H  24,N   4)                  1.0075         0.436637   
     30. B(H  25,C   7)                  1.0910         0.358776   
     31. B(H  26,C   8)                  1.0842         0.367808   
     32. B(H  27,N  10)                  1.0084         0.435248   
     33. B(H  28,C  12)                  1.0862         0.365114   
     34. B(H  29,C  13)                  1.0847         0.367124   
     35. B(H  30,C  13)                  1.0830         0.369535   
     36. B(H  31,C  14)                  1.0829         0.369568   
     37. B(H  32,C  14)                  1.0848         0.366998   
     38. B(H  33,C  17)                  1.0817         0.371228   
     39. B(H  34,C  20)                  1.0840         0.368090   
     40. A(C   1,C   0,H  21)          119.7939         0.352317   
     41. A(C  20,C   0,H  21)          119.4136         0.351549   
     42. A(C   1,C   0,C  20)          120.7925         0.430015   
     43. A(C   0,C   1,H  22)          119.3419         0.352113   
     44. A(C   2,C   1,H  22)          119.3216         0.351547   
     45. A(C   0,C   1,C   2)          121.3365         0.430277   
     46. A(C   3,C   2,H  23)          122.1454         0.353242   
     47. A(C   1,C   2,H  23)          121.3000         0.352421   
     48. A(C   1,C   2,C   3)          116.5546         0.430606   
     49. A(C   2,C   3,C  19)          123.4228         0.434215   
     50. A(N   4,C   3,C  19)          104.0766         0.430154   
     51. A(C   2,C   3,N   4)          132.5006         0.427639   
     52. A(C   3,N   4,H  24)          125.2680         0.357321   
     53. A(C   5,N   4,H  24)          125.6969         0.355586   
     54. A(C   3,N   4,C   5)          109.0351         0.421491   
     55. A(C   6,C   5,N  18)          125.7046         0.420487   
     56. A(N   4,C   5,C   6)          124.6081         0.405567   
     57. A(N   4,C   5,N  18)          109.6873         0.434910   
     58. A(C   5,C   6,C   7)          118.8103         0.408396   
     59. A(C   7,C   6,C  17)          119.0414         0.425620   
     60. A(C   5,C   6,C  17)          122.1482         0.408726   
     61. A(C   8,C   7,H  25)          118.3445         0.350484   
     62. A(C   6,C   7,H  25)          119.1080         0.349307   
     63. A(C   6,C   7,C   8)          122.5475         0.426792   
     64. A(C   7,C   8,H  26)          121.2116         0.351960   
     65. A(C   7,C   8,C   9)          116.3040         0.431013   
     66. A(C   9,C   8,H  26)          122.4844         0.354047   
     67. A(N  10,C   9,C  16)          104.1685         0.429867   
     68. A(C   8,C   9,C  16)          123.2582         0.434898   
     69. A(C   8,C   9,N  10)          132.5733         0.428714   
     70. A(C  11,N  10,H  27)          125.5627         0.357277   
     71. A(C   9,N  10,H  27)          126.2989         0.357175   
     72. A(C   9,N  10,C  11)          108.1384         0.423901   
     73. A(N  10,C  11,C  12)          125.9952         0.386127   
     74. A(C  12,C  11,N  15)          122.6472         0.400089   
     75. A(N  10,C  11,N  15)          111.3576         0.439772   
     76. A(C  13,C  12,C  14)           59.8699         0.374718   
     77. A(C  14,C  12,H  28)          116.8143         0.329900   
     78. A(C  13,C  12,H  28)          116.8146         0.329894   
     79. A(C  11,C  12,H  28)          113.2459         0.320346   
     80. A(C  11,C  12,C  13)          120.1221         0.363387   
     81. A(C  11,C  12,C  14)          120.1185         0.363394   
     82. A(C  12,C  13,C  14)           60.0640         0.375418   
     83. A(C  14,C  13,H  30)          118.4583         0.331149   
     84. A(C  12,C  13,H  30)          119.2743         0.330551   
     85. A(C  14,C  13,H  29)          117.9667         0.330791   
     86. A(C  12,C  13,H  29)          117.4037         0.330193   
     87. A(H  29,C  13,H  30)          113.6520         0.292914   
     88. A(C  12,C  14,H  32)          117.4061         0.330181   
     89. A(C  13,C  14,H  31)          118.4584         0.331154   
     90. A(C  12,C  14,H  31)          119.2706         0.330562   
     91. A(C  12,C  14,C  13)           60.0660         0.375426   
     92. A(H  31,C  14,H  32)          113.6512         0.292902   
     93. A(C  13,C  14,H  32)          117.9681         0.330772   
     94. A(C  11,N  15,C  16)          105.3045         0.438769   
     95. A(N  15,C  16,C  17)          129.4361         0.424645   
     96. A(C   9,C  16,C  17)          119.5329         0.431604   
     97. A(C   9,C  16,N  15)          111.0310         0.429022   
     98. A(C   6,C  17,C  16)          119.3160         0.426580   
     99. A(C  16,C  17,H  33)          117.6954         0.352074   
    100. A(C   6,C  17,H  33)          122.9886         0.351596   
    101. A(C   5,N  18,C  19)          106.3844         0.436734   
    102. A(N  18,C  19,C  20)          129.9041         0.425612   
    103. A(C   3,C  19,C  20)          119.2793         0.432572   
    104. A(C   3,C  19,N  18)          110.8165         0.429735   
    105. A(C   0,C  20,C  19)          118.6143         0.428718   
    106. A(C  19,C  20,H  34)          120.1121         0.352042   
    107. A(C   0,C  20,H  34)          121.2736         0.352277   
    108. D(H  22,C   1,C   0,C  20)    179.9988         0.025516   
    109. D(C   2,C   1,C   0,C  20)      0.0062         0.025516   
    110. D(H  22,C   1,C   0,H  21)     -0.0020         0.025516   
    111. D(C   2,C   1,C   0,H  21)   -179.9947         0.025516   
    112. D(C   3,C   2,C   1,H  22)    179.9998         0.025009   
    113. D(H  23,C   2,C   1,H  22)      0.0065         0.025009   
    114. D(H  23,C   2,C   1,C   0)    179.9992         0.025009   
    115. D(C   3,C   2,C   1,C   0)     -0.0076         0.025009   
    116. D(C  19,C   3,C   2,H  23)   -179.9973         0.025746   
    117. D(C  19,C   3,C   2,C   1)      0.0096         0.025746   
    118. D(N   4,C   3,C   2,H  23)     -0.0062         0.025746   
    119. D(N   4,C   3,C   2,C   1)   -179.9994         0.025746   
    120. D(H  24,N   4,C   3,C   2)      0.0156         0.029109   
    121. D(H  24,N   4,C   3,C  19)   -179.9921         0.029109   
    122. D(C   5,N   4,C   3,C   2)   -179.9919         0.029109   
    123. D(C   5,N   4,C   3,C  19)      0.0004         0.029109   
    124. D(N  18,C   5,N   4,H  24)    179.9865         0.027379   
    125. D(N  18,C   5,N   4,C   3)     -0.0061         0.027379   
    126. D(C   6,C   5,N   4,H  24)      0.0014         0.027379   
    127. D(C   6,C   5,N   4,C   3)   -179.9911         0.027379   
    128. D(C  17,C   6,C   5,N   4)     -0.1207         0.014819   
    129. D(C   7,C   6,C   5,N  18)     -0.0925         0.014819   
    130. D(C  17,C   6,C   5,N  18)    179.8967         0.014819   
    131. D(C   7,C   6,C   5,N   4)    179.8902         0.014819   
    132. D(H  25,C   7,C   6,C  17)   -179.9906         0.023585   
    133. D(H  25,C   7,C   6,C   5)     -0.0011         0.023585   
    134. D(C   8,C   7,C   6,C  17)      0.0048         0.023585   
    135. D(C   8,C   7,C   6,C   5)    179.9942         0.023585   
    136. D(C   9,C   8,C   7,H  25)    179.9964         0.024593   
    137. D(C   9,C   8,C   7,C   6)      0.0010         0.024593   
    138. D(H  26,C   8,C   7,C   6)    179.9968         0.024593   
    139. D(H  26,C   8,C   7,H  25)     -0.0078         0.024593   
    140. D(C  16,C   9,C   8,H  26)    179.9989         0.026478   
    141. D(C  16,C   9,C   8,C   7)     -0.0054         0.026478   
    142. D(N  10,C   9,C   8,H  26)      0.0053         0.026478   
    143. D(N  10,C   9,C   8,C   7)   -179.9990         0.026478   
    144. D(H  27,N  10,C   9,C  16)   -179.9993         0.029158   
    145. D(H  27,N  10,C   9,C   8)     -0.0048         0.029158   
    146. D(C  11,N  10,C   9,C  16)      0.0001         0.029158   
    147. D(C  11,N  10,C   9,C   8)    179.9946         0.029158   
    148. D(N  15,C  11,N  10,H  27)   -179.9987         0.029263   
    149. D(N  15,C  11,N  10,C   9)      0.0018         0.029263   
    150. D(C  12,C  11,N  10,H  27)      0.0015         0.029263   
    151. D(C  12,C  11,N  10,C   9)   -179.9980         0.029263   
    152. D(H  28,C  12,C  11,N  10)   -179.9860         0.010000   
    153. D(C  14,C  12,C  11,N  15)   -144.7488         0.010000   
    154. D(C  14,C  12,C  11,N  10)     35.2510         0.010000   
    155. D(C  13,C  12,C  11,N  15)    144.7834         0.010000   
    156. D(C  13,C  12,C  11,N  10)    -35.2168         0.010000   
    157. D(H  29,C  13,C  12,H  28)      1.1992         0.013228   
    158. D(H  29,C  13,C  12,C  14)    108.1203         0.013228   
    159. D(H  29,C  13,C  12,C  11)   -142.3664         0.013228   
    160. D(C  14,C  13,C  12,H  28)   -106.9211         0.013228   
    161. D(H  30,C  13,C  12,C  11)      1.6004         0.013228   
    162. D(C  14,C  13,C  12,C  11)    109.5134         0.013228   
    163. D(C  12,C  14,C  13,H  29)   -107.1924         0.013512   
    164. D(H  32,C  14,C  12,C  11)    142.3592         0.013231   
    165. D(H  31,C  14,C  12,H  28)   -145.1629         0.013231   
    166. D(H  31,C  14,C  12,C  13)    107.9155         0.013231   
    167. D(H  31,C  14,C  12,C  11)     -1.6037         0.013231   
    168. D(C  13,C  14,C  12,H  28)    106.9216         0.013231   
    169. D(C  12,C  14,C  13,H  30)    109.2509         0.013512   
    170. D(C  13,C  14,C  12,C  11)   -109.5191         0.013231   
    171. D(H  32,C  14,C  13,C  12)    107.1953         0.013512   
    172. D(H  31,C  14,C  13,H  30)      0.0038         0.013512   
    173. D(H  31,C  14,C  13,H  29)    143.5605         0.013512   
    174. D(H  31,C  14,C  13,C  12)   -109.2471         0.013512   
    175. D(C  16,N  15,C  11,C  12)    179.9969         0.041218   
    176. D(C  16,N  15,C  11,N  10)     -0.0029         0.041218   
    177. D(C  17,C  16,N  15,C  11)   -179.9980         0.025818   
    178. D(C   9,C  16,N  15,C  11)      0.0030         0.025818   
    179. D(C  17,C  16,C   9,N  10)    179.9990         0.027332   
    180. D(C  17,C  16,C   9,C   8)      0.0038         0.027332   
    181. D(N  15,C  16,C   9,N  10)     -0.0019         0.027332   
    182. D(N  15,C  16,C   9,C   8)   -179.9971         0.027332   
    183. D(H  33,C  17,C  16,N  15)      0.0061         0.024217   
    184. D(H  33,C  17,C  16,C   9)   -179.9950         0.024217   
    185. D(C   6,C  17,C  16,N  15)   -179.9966         0.024217   
    186. D(C   6,C  17,C  16,C   9)      0.0023         0.024217   
    187. D(H  33,C  17,C   6,C   7)    179.9908         0.023811   
    188. D(H  33,C  17,C   6,C   5)      0.0016         0.023811   
    189. D(C  16,C  17,C   6,C   7)     -0.0063         0.023811   
    190. D(C  16,C  17,C   6,C   5)   -179.9954         0.023811   
    191. D(C  19,N  18,C   5,C   6)    179.9939         0.038534   
    192. D(C  19,N  18,C   5,N   4)      0.0090         0.038534   
    193. D(C  20,C  19,N  18,C   5)   -179.9996         0.026080   
    194. D(C   3,C  19,N  18,C   5)     -0.0089         0.026080   
    195. D(C  20,C  19,C   3,N   4)    179.9970         0.027596   
    196. D(C  20,C  19,C   3,C   2)     -0.0098         0.027596   
    197. D(N  18,C  19,C   3,N   4)      0.0052         0.027596   
    198. D(N  18,C  19,C   3,C   2)    179.9984         0.027596   
    199. D(H  34,C  20,C  19,N  18)     -0.0090         0.024625   
    200. D(H  34,C  20,C  19,C   3)   -179.9990         0.024625   
    201. D(C   0,C  20,C  19,N  18)    179.9976         0.024625   
    202. D(C   0,C  20,C  19,C   3)      0.0077         0.024625   
    203. D(H  34,C  20,C   0,H  21)      0.0015         0.024831   
    204. D(H  34,C  20,C   0,C   1)   -179.9993         0.024831   
    205. D(C  19,C  20,C   0,H  21)    179.9948         0.024831   
    206. D(C  19,C  20,C   0,C   1)     -0.0060         0.024831   
    -----------------------------------------------------------------

Number of atoms                         .... 35
Number of degrees of freedom            .... 206


         *************************************************************
         *                GEOMETRY OPTIMIZATION CYCLE   1            *
         *************************************************************
---------------------------------
CARTESIAN COORDINATES (ANGSTROEM)
---------------------------------
  C     -6.619900   -0.130500   -0.608000
  C     -6.494000    0.674400    0.527400
  C     -5.238300    0.994900    1.057100
  C     -4.128100    0.469500    0.393000
  N     -2.780200    0.569700    0.620200
  C     -2.107100   -0.149600   -0.343900
  C     -0.645000   -0.274000   -0.423600
  C     -0.085200   -1.043300   -1.461000
  C      1.298400   -1.214400   -1.611100
  C      2.104600   -0.577500   -0.670900
  N      3.463300   -0.519000   -0.502300
  C      3.723700    0.256700    0.596400
  C      5.131000    0.597200    1.161400
  C      6.237000   -0.422500    1.099600
  C      6.292700    0.798100    0.225000
  N      2.613500    0.699900    1.143600
  C      1.599600    0.191400    0.369300
  C      0.210700    0.350100    0.501700
  N     -2.975500   -0.702900   -1.174600
  C     -4.221400   -0.332000   -0.735600
  C     -5.486800   -0.643200   -1.252900
  H     -7.607700   -0.363600   -0.998200
  H     -7.390100    1.060100    1.009700
  H     -5.141300    1.619500    1.938100
  H     -2.353900    1.087000    1.372400
  H     -0.748000   -1.527800   -2.179500
  H      1.706300   -1.812000   -2.418600
  H      4.156600   -0.966400   -1.082000
  H      5.097200    1.230600    2.043200
  H      6.915800   -0.474600    1.944100
  H      6.047200   -1.382100    0.634900
  H      6.141100    0.676900   -0.840400
  H      7.009300    1.572500    0.477300
  H     -0.150200    0.955200    1.322500
  H     -5.575400   -1.268300   -2.134100

----------------------------
CARTESIAN COORDINATES (A.U.)
----------------------------
  NO LB      ZA    FRAG     MASS         X           Y           Z
   0 C     6.0000    0    12.011  -12.509798   -0.246609   -1.148953
   1 C     6.0000    0    12.011  -12.271882    1.274431    0.996642
   2 C     6.0000    0    12.011   -9.898952    1.880089    1.997629
   3 C     6.0000    0    12.011   -7.800978    0.887226    0.742662
   4 N     7.0000    0    14.007   -5.253817    1.076577    1.172008
   5 C     6.0000    0    12.011   -3.981842   -0.282703   -0.649877
   6 C     6.0000    0    12.011   -1.218873   -0.517785   -0.800488
   7 C     6.0000    0    12.011   -0.161005   -1.971551   -2.760890
   8 C     6.0000    0    12.011    2.453620   -2.294883   -3.044538
   9 C     6.0000    0    12.011    3.977118   -1.091317   -1.267817
  10 N     7.0000    0    14.007    6.544689   -0.980768   -0.949209
  11 C     6.0000    0    12.011    7.036773    0.485093    1.127033
  12 C     6.0000    0    12.011    9.696185    1.128544    2.194728
  13 C     6.0000    0    12.011   11.786222   -0.798409    2.077943
  14 C     6.0000    0    12.011   11.891480    1.508190    0.425188
  15 N     7.0000    0    14.007    4.938799    1.322619    2.161091
  16 C     6.0000    0    12.011    3.022806    0.361694    0.697876
  17 C     6.0000    0    12.011    0.398165    0.661593    0.948076
  18 N     7.0000    0    14.007   -5.622880   -1.328288   -2.219672
  19 C     6.0000    0    12.011   -7.977290   -0.627389   -1.390083
  20 C     6.0000    0    12.011  -10.368549   -1.215472   -2.367638
  21 H     1.0000    0     1.008  -14.376470   -0.687104   -1.886325
  22 H     1.0000    0     1.008  -13.965265    2.003299    1.908056
  23 H     1.0000    0     1.008   -9.715649    3.060411    3.662478
  24 H     1.0000    0     1.008   -4.448226    2.054132    2.593460
  25 H     1.0000    0     1.008   -1.413515   -2.887124   -4.118658
  26 H     1.0000    0     1.008    3.224440   -3.424184   -4.570492
  27 H     1.0000    0     1.008    7.854836   -1.826231   -2.044684
  28 H     1.0000    0     1.008    9.632312    2.325497    3.861088
  29 H     1.0000    0     1.008   13.068968   -0.896864    3.673817
  30 H     1.0000    0     1.008   11.427552   -2.611790    1.199787
  31 H     1.0000    0     1.008   11.604997    1.279156   -1.588126
  32 H     1.0000    0     1.008   13.245657    2.971594    0.901966
  33 H     1.0000    0     1.008   -0.283837    1.805066    2.499163
  34 H     1.0000    0     1.008  -10.535979   -2.396740   -4.032865

--------------------------------
INTERNAL COORDINATES (ANGSTROEM)
--------------------------------
 C      0   0   0     0.000000000000     0.00000000     0.00000000
 C      1   0   0     1.397443372735     0.00000000     0.00000000
 C      2   1   0     1.400030296101   121.33649164     0.00000000
 C      3   2   1     1.396287223318   116.55458750     0.00000000
 N      4   3   2     1.370581734155   132.50063324   180.00062930
 C      5   4   3     1.378384891821   109.03510369   180.00813107
 C      6   5   4     1.469545460338   124.60808716   180.00887778
 C      7   6   5     1.407621145763   118.81034669   179.89020602
 C      8   7   6     1.402196198825   122.54748422   179.99424577
 C      9   8   7     1.392686644583   116.30400801     0.00000000
 N     10   9   8     1.370369986536   132.57330175   180.00102289
 C     11  10   9     1.369912530054   108.13840461   179.99464076
 C     12  11  10     1.554238894121   125.99523560   180.00197917
 C     13  12  11     1.505603975154   120.12206574   324.78316654
 C     14  13  12     1.502628367229    60.06403090   109.51336955
 N     12  11  10     1.314685559364   111.35757412     0.00000000
 C     16  12  11     1.373355725950   105.30449622     0.00000000
 C     17  16  12     1.404193241687   129.43611461   180.00198073
 N      6   5   4     1.322997331819   109.68731114     0.00000000
 C     19   6   5     1.372062177891   106.38444788     0.00000000
 C      1   2   3     1.400954285478   120.79251440     0.00000000
 H      1   2   3     1.087354813297   119.79387417   180.00533899
 H      2   1   3     1.088289019516   119.34194053   179.99266254
 H      3   2   1     1.084294775419   121.29996606   179.99920694
 H      5   4   3     1.007539488060   125.26801278     0.00000000
 H      8   7   6     1.091002447293   119.10803858     0.00000000
 H      9   8   7     1.084234485709   121.21164034   179.99679490
 H     11  10   9     1.008406535084   126.29893347     0.00000000
 H     13  12  11     1.086236272641   113.24588112   180.01398055
 H     14  13  12     1.084741489941   117.40374916   217.63362109
 H     14  13  12     1.082959966942   119.27426983     1.60040566
 H     15  14  13     1.082935436672   118.45840594   250.75288752
 H     15  14  13     1.084834646386   117.96809964   107.19531789
 H     18  17  16     1.081715054901   117.69537896     0.00000000
 H     21   1   2     1.084026480304   121.27364825   180.00071885

---------------------------
INTERNAL COORDINATES (A.U.)
---------------------------
 C      0   0   0     0.000000000000     0.00000000     0.00000000
 C      1   0   0     2.640785262132     0.00000000     0.00000000
 C      2   1   0     2.645673838823   121.33649164     0.00000000
 C      3   2   1     2.638600456364   116.55458750     0.00000000
 N      4   3   2     2.590024121708   132.50063324   180.00062930
 C      5   4   3     2.604769952676   109.03510369   180.00813107
 C      6   5   4     2.777038461386   124.60808716   180.00887778
 C      7   6   5     2.660018465809   118.81034669   179.89020602
 C      8   7   6     2.649766801805   122.54748422   179.99424577
 C      9   8   7     2.631796348632   116.30400801     0.00000000
 N     10   9   8     2.589623976699   132.57330175   180.00102289
 C     11  10   9     2.588759509230   108.13840461   179.99464076
 C     12  11  10     2.937085856578   125.99523560   180.00197917
 C     13  12  11     2.845179179185   120.12206574   324.78316654
 C     14  13  12     2.839556095123    60.06403090   109.51336955
 N     12  11  10     2.484395659419   111.35757412     0.00000000
 C     16  12  11     2.595266206498   105.30449622     0.00000000
 C     17  16  12     2.653540665892   129.43611461   180.00198073
 N      6   5   4     2.500102633046   109.68731114     0.00000000
 C     19   6   5     2.592821754926   106.38444788     0.00000000
 C      1   2   3     2.647419925697   120.79251440     0.00000000
 H      1   2   3     2.054802807532   119.79387417   180.00533899
 H      2   1   3     2.056568201440   119.34194053   179.99266254
 H      3   2   1     2.049020173983   121.29996606   179.99920694
 H      5   4   3     1.903973701544   125.26801278     0.00000000
 H      8   7   6     2.061695836822   119.10803858     0.00000000
 H      9   8   7     2.048906242942   121.21164034   179.99679490
 H     11  10   9     1.905612182965   126.29893347     0.00000000
 H     13  12  11     2.052689072022   113.24588112   180.01398055
 H     14  13  12     2.049864342091   117.40374916   217.63362109
 H     14  13  12     2.046497751522   119.27426983     1.60040566
 H     15  14  13     2.046451396029   118.45840594   250.75288752
 H     15  14  13     2.050040382259   117.96809964   107.19531789
 H     18  17  16     2.044145208703   117.69537896     0.00000000
 H     21   1   2     2.048513169693   121.27364825   180.00071885

---------------------
BASIS SET INFORMATION
---------------------
There are 3 groups of distinct atoms

 Group   1 Type C   : 7s4p1d contracted to 3s2p1d pattern {511/31/1}
 Group   2 Type N   : 7s4p1d contracted to 3s2p1d pattern {511/31/1}
 Group   3 Type H   : 4s1p contracted to 2s1p pattern {31/1}

Atom   0C    basis set group =>   1
Atom   1C    basis set group =>   1
Atom   2C    basis set group =>   1
Atom   3C    basis set group =>   1
Atom   4N    basis set group =>   2
Atom   5C    basis set group =>   1
Atom   6C    basis set group =>   1
Atom   7C    basis set group =>   1
Atom   8C    basis set group =>   1
Atom   9C    basis set group =>   1
Atom  10N    basis set group =>   2
Atom  11C    basis set group =>   1
Atom  12C    basis set group =>   1
Atom  13C    basis set group =>   1
Atom  14C    basis set group =>   1
Atom  15N    basis set group =>   2
Atom  16C    basis set group =>   1
Atom  17C    basis set group =>   1
Atom  18N    basis set group =>   2
Atom  19C    basis set group =>   1
Atom  20C    basis set group =>   1
Atom  21H    basis set group =>   3
Atom  22H    basis set group =>   3
Atom  23H    basis set group =>   3
Atom  24H    basis set group =>   3
Atom  25H    basis set group =>   3
Atom  26H    basis set group =>   3
Atom  27H    basis set group =>   3
Atom  28H    basis set group =>   3
Atom  29H    basis set group =>   3
Atom  30H    basis set group =>   3
Atom  31H    basis set group =>   3
Atom  32H    basis set group =>   3
Atom  33H    basis set group =>   3
Atom  34H    basis set group =>   3
---------------------------------
AUXILIARY/J BASIS SET INFORMATION
---------------------------------
There are 3 groups of distinct atoms

 Group   1 Type C   : 12s5p4d2f1g contracted to 6s4p3d1f1g pattern {711111/2111/211/2/1}
 Group   2 Type N   : 12s5p4d2f1g contracted to 6s4p3d1f1g pattern {711111/2111/211/2/1}
 Group   3 Type H   : 5s2p1d contracted to 3s1p1d pattern {311/2/1}

Atom   0C    basis set group =>   1
Atom   1C    basis set group =>   1
Atom   2C    basis set group =>   1
Atom   3C    basis set group =>   1
Atom   4N    basis set group =>   2
Atom   5C    basis set group =>   1
Atom   6C    basis set group =>   1
Atom   7C    basis set group =>   1
Atom   8C    basis set group =>   1
Atom   9C    basis set group =>   1
Atom  10N    basis set group =>   2
Atom  11C    basis set group =>   1
Atom  12C    basis set group =>   1
Atom  13C    basis set group =>   1
Atom  14C    basis set group =>   1
Atom  15N    basis set group =>   2
Atom  16C    basis set group =>   1
Atom  17C    basis set group =>   1
Atom  18N    basis set group =>   2
Atom  19C    basis set group =>   1
Atom  20C    basis set group =>   1
Atom  21H    basis set group =>   3
Atom  22H    basis set group =>   3
Atom  23H    basis set group =>   3
Atom  24H    basis set group =>   3
Atom  25H    basis set group =>   3
Atom  26H    basis set group =>   3
Atom  27H    basis set group =>   3
Atom  28H    basis set group =>   3
Atom  29H    basis set group =>   3
Atom  30H    basis set group =>   3
Atom  31H    basis set group =>   3
Atom  32H    basis set group =>   3
Atom  33H    basis set group =>   3
Atom  34H    basis set group =>   3
------------------------------------------------------------------------------
                             ORCA STARTUP CALCULATIONS
                           -- RI-GTO INTEGRALS CHOSEN --
------------------------------------------------------------------------------
------------------------------------------------------------------------------
                   ___                                                        
                  /   \      - P O W E R E D   B Y -                         
                 /     \                                                     
                 |  |  |   _    _      __       _____    __    __             
                 |  |  |  | |  | |    /  \     |  _  \  |  |  /  |          
                  \  \/   | |  | |   /    \    | | | |  |  | /  /          
                 / \  \   | |__| |  /  /\  \   | |_| |  |  |/  /          
                |  |  |   |  __  | /  /__\  \  |    /   |      \           
                |  |  |   | |  | | |   __   |  |    \   |  |\   \          
                \     /   | |  | | |  |  |  |  | |\  \  |  | \   \       
                 \___/    |_|  |_| |__|  |__|  |_| \__\ |__|  \__/        
                                                                              
                      - O R C A' S   B I G   F R I E N D -                    
                                      &                                       
                       - I N T E G R A L  F E E D E R -                       
                                                                              
 v1 FN, 2020, v2 2021, v3 2022-2024                                           
------------------------------------------------------------------------------


----------------------
SHARK INTEGRAL PACKAGE
----------------------

Number of atoms                             ...     35
Number of basis functions                   ...    364
Number of shells                            ...    168
Maximum angular momentum                    ...      2
Integral batch strategy                     ... SHARK/LIBINT Hybrid
RI-J (if used) integral strategy            ... SPLIT-RIJ (Revised 2003 algorithm where possible)
Printlevel                                  ...      1
Contraction scheme used                     ... SEGMENTED contraction
Prescreening option                         ... SCHWARTZ
   Thresh                                   ... 2.500e-11
   Tcut                                     ... 2.500e-12
   Tpresel                                  ... 2.500e-12 
Coulomb Range Separation                    ... NOT USED
Exchange Range Separation                   ... NOT USED
Multipole approximations                    ... NOT USED
Finite Nucleus Model                        ... NOT USED
CABS basis                                  ... NOT available
Auxiliary Coulomb fitting basis             ... AVAILABLE
   # of basis functions in Aux-J            ...   1183
   # of shells in Aux-J                     ...    385
   Maximum angular momentum in Aux-J        ...      4
Auxiliary J/K fitting basis                 ... NOT available
Auxiliary Correlation fitting basis         ... NOT available
Auxiliary 'external' fitting basis          ... NOT available

Checking pre-screening integrals            ... done (  0.0 sec) Dimension = 168
   => SHARK Basis and OBASIS are compatible. Storing Pre-screening
Shell pair information
Shell pair cut-off parameter TPreSel        ...   2.5e-12
Total number of shell pairs                 ...     14196
Shell pairs after pre-screening             ...      9216
Total number of primitive shell pairs       ...     52318
Primitive shell pairs kept                  ...     22375
          la=0 lb=0:   2732 shell pairs
          la=1 lb=0:   3396 shell pairs
          la=1 lb=1:   1091 shell pairs
          la=2 lb=0:   1139 shell pairs
          la=2 lb=1:    727 shell pairs
          la=2 lb=2:    131 shell pairs

Checking whether 4 symmetric matrices of dimension 364 fit in memory
:Max Core in MB      =   2000.00
 MB in use           =     12.62
 MB left             =   1987.38
 MB needed           =      2.03
 Data fit in memory  = YES
Calculating RI/J V-Matrix + Cholesky decomp.... done (  0.1 sec)
Calculating Nuclear repulsion               ... done (  0.0 sec) ENN=   1446.828755241984 Eh

Diagonalization of the overlap matrix:
Smallest eigenvalue                        ... 2.266e-04
Time for diagonalization                   ...    0.012 sec
Threshold for overlap eigenvalues          ... 1.000e-07
Number of eigenvalues below threshold      ... 0
Time for construction of square roots      ...    0.007 sec
Total time needed                          ...    0.020 sec

-------------------
DFT GRID GENERATION
-------------------

General Integration Accuracy     IntAcc      ... 4.388
Radial Grid Type                 RadialGrid  ... OptM3 with GC (2021)
Angular Grid (max. ang.)         AngularGrid ... 4 (Lebedev-302)
Angular grid pruning method      GridPruning ... 4 (adaptive)
Weight generation scheme         WeightScheme... mBecke (2022)
Basis function cutoff            BFCut       ... 1.0000e-11
Integration weight cutoff        WCut        ... 1.0000e-14
Partially contracted basis set               ... off
Rotationally invariant grid construction     ... off
Angular grids for H and He will be reduced by one unit

Total number of grid points                  ...   170604
Total number of batches                      ...     2683
Average number of points per batch           ...       63
Average number of grid points per atom       ...     4874

--------------------
COSX GRID GENERATION
--------------------

GRIDX 1
-------
General Integration Accuracy     IntAcc      ... 3.816
Radial Grid Type                 RadialGrid  ... OptM3 with GC (2021)
Angular Grid (max. ang.)         AngularGrid ... 1 (Lebedev-50)
Angular grid pruning method      GridPruning ... 4 (adaptive)
Weight generation scheme         WeightScheme... mBecke (2022)
Basis function cutoff            BFCut       ... 1.0000e-11
Integration weight cutoff        WCut        ... 1.0000e-14
Partially contracted basis set               ... on
Rotationally invariant grid construction     ... off
Angular grids for H and He will be reduced by one unit

Total number of grid points                  ...    21685
Total number of batches                      ...      190
Average number of points per batch           ...      114
Average number of grid points per atom       ...      620
UseSFitting                                  ... on

GRIDX 2
-------
General Integration Accuracy     IntAcc      ... 4.020
Radial Grid Type                 RadialGrid  ... OptM3 with GC (2021)
Angular Grid (max. ang.)         AngularGrid ... 2 (Lebedev-110)
Angular grid pruning method      GridPruning ... 4 (adaptive)
Weight generation scheme         WeightScheme... mBecke (2022)
Basis function cutoff            BFCut       ... 1.0000e-11
Integration weight cutoff        WCut        ... 1.0000e-14
Partially contracted basis set               ... on
Rotationally invariant grid construction     ... off
Angular grids for H and He will be reduced by one unit

Total number of grid points                  ...    47674
Total number of batches                      ...      393
Average number of points per batch           ...      121
Average number of grid points per atom       ...     1362
UseSFitting                                  ... on

GRIDX 3
-------
General Integration Accuracy     IntAcc      ... 4.338
Radial Grid Type                 RadialGrid  ... OptM3 with GC (2021)
Angular Grid (max. ang.)         AngularGrid ... 3 (Lebedev-194)
Angular grid pruning method      GridPruning ... 4 (adaptive)
Weight generation scheme         WeightScheme... mBecke (2022)
Basis function cutoff            BFCut       ... 1.0000e-11
Integration weight cutoff        WCut        ... 1.0000e-14
Partially contracted basis set               ... on
Rotationally invariant grid construction     ... off
Angular grids for H and He will be reduced by one unit

Total number of grid points                  ...   104563
Total number of batches                      ...      835
Average number of points per batch           ...      125
Average number of grid points per atom       ...     2988
UseSFitting                                  ... on
Grids setup in   4.0 sec
Initializing property integral containers    ... done (  0.0 sec)

SHARK setup successfully completed in   4.3 seconds

Maximum memory used throughout the entire STARTUP-calculation: 69.5 MB
-------------------------------------------------------------------------------
                                 ORCA GUESS
                   Start orbitals & Density for SCF / CASSCF
-------------------------------------------------------------------------------

------------
SCF SETTINGS
------------
Hamiltonian:
 Density Functional     Method          .... DFT(GTOs)
 Exchange Functional    Exchange        .... B88
   X-Alpha parameter    XAlpha          ....  0.666667
   Becke's b parameter  XBeta           ....  0.004200
 Correlation Functional Correlation     .... LYP
 LDA part of GGA corr.  LDAOpt          .... VWN-5
 Gradients option       PostSCFGGA      .... off
 Hybrid DFT is turned on
   Fraction HF Exchange ScalHFX         ....  0.200000
   Scaling of DF-GGA-X  ScalDFX         ....  0.720000
   Scaling of DF-GGA-C  ScalDFC         ....  0.810000
   Scaling of DF-LDA-C  ScalLDAC        ....  1.000000
   Perturbative correction              ....  0.000000
   NL short-range parameter             ....  4.800000
 RI-approximation to the Coulomb term is turned on
   Number of AuxJ basis functions       .... 1183
   RIJ-COSX (HFX calculated with COS-X)).... on


General Settings:
 Integral files         IntName         .... C:\Users\jabreumiranda\Radioprotection_Pipeline_Project\06_Quantum_DFT_ORCA\CHEMBL4952776_neutral_opt
 Hartree-Fock type      HFTyp           .... RHF
 Total Charge           Charge          ....    0
 Multiplicity           Mult            ....    1
 Number of Electrons    NEL             ....  144
 Basis Dimension        Dim             ....  364
 Nuclear Repulsion      ENuc            ....   1446.8287552420 Eh

Convergence Acceleration:
 AO-DIIS                CNVDIIS         .... on
   Start iteration      DIISMaxIt       ....    12
   Startup error        DIISStart       ....  0.200000
   # of expansion vecs  DIISMaxEq       ....     5
   Bias factor          DIISBfac        ....   1.050
   Max. coefficient     DIISMaxC        ....  10.000
 MO-DIIS                CNVKDIIS        .... off
 Trust-Rad. Augm. Hess. CNVTRAH         .... auto
   Auto Start mean grad. ratio tolernc. ....  1.125000
   Auto Start start iteration           ....    50
   Auto Start num. interpolation iter.  ....    10
   Max. Number of Micro iterations      ....    24
   Max. Number of Macro iterations      .... Maxiter - #DIIS iter
   Number of Davidson start vectors     ....     2
   Converg. threshold    (grad. norm)   ....   1.000e-05
   Grad. Scal. Fac. for Micro threshold ....   0.100
   Minimum threshold for Micro iter.    ....   1.000e-02
   NR start threshold (gradient norm)   ....   1.000e-04
   Initial trust radius                 ....   0.400
   Minimum AH scaling param. (alpha)    ....   1.000
   Maximum AH scaling param. (alpha)    .... 1000.000
   Quad. conv. algorithm                .... NR
   White noise on init. David. guess    .... on
   Maximum white noise                  ....   0.010
   Pseudo random numbers                .... off
   Inactive MOs                         .... canonical
   Orbital update algorithm             .... Taylor
   Preconditioner                       .... Diag
   Full preconditioner red. dimension   ....   250
 SOSCF                 CNVSOSCF           .... on
   Start iteration     SOSCFMaxIt         ....   150
   Startup grad/error  SOSCFStart         ....  0.003300
   Hessian update      SOSCFHessUp        .... L-BFGS
   Autom. constraints  SOSCFAutoConstrain .... off
 Level Shifting         CNVShift        .... on
   Level shift para.    LevelShift      ....    0.2500
   Turn off err/grad.   ShiftErr        ....    0.0010
 Zerner damping         CNVZerner       .... off
 Static damping         CNVDamp         .... on
   Fraction old density DampFac         ....    0.7000
   Max. Damping (<1)    DampMax         ....    0.9800
   Min. Damping (>=0)   DampMin         ....    0.0000
   Turn off err/grad.   DampErr         ....    0.1000

SCF Procedure:
 Maximum # iterations   MaxIter         ....   125
 SCF integral mode      SCFMode         .... Direct
   Integral package                     .... SHARK and LIBINT hybrid scheme
 Reset frequency        DirectResetFreq ....    20
 Integral Threshold     Thresh          ....  2.500e-11 Eh
 Primitive CutOff       TCut            ....  2.500e-12 Eh

Convergence Tolerance:
 Convergence Check Mode ConvCheckMode   .... Total+1el-Energy
 Convergence forced     ConvForced      .... 0
 Energy Change          TolE            ....  1.000e-08 Eh
 1-El. energy change                    ....  1.000e-05 Eh
 Orbital Gradient       TolG            ....  1.000e-05
 Orbital Rotation angle TolX            ....  1.000e-05
 DIIS Error             TolErr          ....  5.000e-07

------------------------------
INITIAL GUESS: MODEL POTENTIAL
------------------------------
Loading Hartree-Fock densities                     ... done
Calculating cut-offs                               ... done
Initializing the effective Hamiltonian             ... done
Setting up the integral package (SHARK)            ... done
Starting the Coulomb interaction                   ... done (   0.7 sec)
Making the grid                                    ... done (   0.6 sec)
Mapping shells                                     ... done
Starting the XC term evaluation                    ... done (   0.8 sec)
  promolecular density results
     # of electrons  =    143.993270242
     EX              =   -118.000968490
     EC              =     -4.904501203
     EX+EC           =   -122.905469693
Transforming the Hamiltonian                       ... done (   0.0 sec)
Diagonalizing the Hamiltonian                      ... done (   0.0 sec)
Back transforming the eigenvectors                 ... done (   0.0 sec)
Now organizing SCF variables                       ... done
                      ------------------
                      INITIAL GUESS DONE (   2.2 sec)
                      ------------------
             **** ENERGY FILE WAS UPDATED (C:\Users\jabreumiranda\Radioprotection_Pipeline_Project\06_Quantum_DFT_ORCA\CHEMBL4952776_neutral_opt.en.tmp) ****
Finished Guess after   2.3 sec
Maximum memory used throughout the entire GUESS-calculation: 22.9 MB

-------------------------------------------------------------------------------------------
                                      ORCA LEAN-SCF
                              memory conserving SCF solver
-------------------------------------------------------------------------------------------

--------------------
CPCM SOLVATION MODEL
--------------------
CPCM parameters:
  Epsilon                                         ...      80.1510
  Refrac                                          ...       1.3328
  Rsolv                                           ...       1.3000
  Surface type                                    ... GAUSSIAN VDW
  Discretization scheme                           ... Constant charge density
    Threshold for H atoms                         ...       5.0000 (charges/Ang^2)
    Threshold for non-H atoms                     ...       5.0000 (charges/Ang^2)
  Epsilon function type                           ...         CPCM
Solvent:                                          ... WATER
Radii:
  Scheme                                          ... Element-dependent radii
  Radius for C  used is    3.8550 Bohr (=   2.0400 Ang.)
  Radius for N  used is    3.5149 Bohr (=   1.8600 Ang.)
  Radius for H  used is    2.4944 Bohr (=   1.3200 Ang.)
Calculating surface                               ...        done! (  0.0s)
Cavity surface points                             ...         3193
Cavity Volume                                     ...    2191.9946
Cavity Surface-area                               ...    1134.5668
Calculating surface distance matrix               ...        done! (  0.1s)
Performing Cholesky decomposition & store         ...        done! (  0.4s)
Overall time for CPCM initialization              ...                 0.5s

----------------------------------------D-I-I-S--------------------------------------------
Iteration    Energy (Eh)           Delta-E    RMSDP     MaxDP     DIISErr   Damp  Time(sec)
-------------------------------------------------------------------------------------------
               ***  Starting incremental Fock matrix formation  ***
    1    -873.6901212857226255     0.00e+00  2.48e-03  8.78e-02  2.01e-01  0.700  20.3
    2    -873.8839780997525395    -1.94e-01  1.72e-03  4.84e-02  9.52e-02  0.700  10.7
                               ***Turning on AO-DIIS***
    3    -873.9671889126927908    -8.32e-02  8.08e-04  1.54e-02  3.40e-02  0.700  10.5
    4    -874.0160732648644171    -4.89e-02  1.49e-03  2.89e-02  1.86e-02  0.000  10.1
    5    -874.1208256797006015    -1.05e-01  2.07e-04  6.44e-03  5.20e-03  0.000  10.3
                              *** Initializing SOSCF ***
---------------------------------------S-O-S-C-F--------------------------------------
Iteration    Energy (Eh)           Delta-E    RMSDP     MaxDP     MaxGrad    Time(sec)
--------------------------------------------------------------------------------------
    6    -874.1214215032493939    -5.96e-04  7.36e-05  1.93e-03  1.51e-03     9.3
               *** Restarting incremental Fock matrix formation ***
    7    -874.1215450410315952    -1.24e-04  4.82e-05  1.21e-03  2.30e-04    20.2
    8    -874.1215475182937098    -2.48e-06  1.44e-05  6.78e-04  2.05e-04    13.7
    9    -874.1215502056959394    -2.69e-06  1.04e-05  2.75e-04  7.20e-05    12.1
   10    -874.1215502178959014    -1.22e-08  4.44e-06  1.99e-04  5.11e-05    11.6
   11    -874.1215505680454498    -3.50e-07  1.69e-06  7.11e-05  1.21e-05    10.4
   12    -874.1215505868187847    -1.88e-08  9.91e-07  3.78e-05  1.28e-05     9.1
   13    -874.1215505789139115     7.90e-09  2.48e-07  8.27e-06  1.23e-06     8.3
                 **** Energy Check signals convergence ****

               *****************************************************
               *                     SUCCESS                       *
               *           SCF CONVERGED AFTER  13 CYCLES          *
               *****************************************************

Recomputing exchange energy using gridx3       ... done (   30.807 sec)
Old exchange energy                            :    -23.902110743 Eh
New exchange energy                            :    -23.902117636 Eh
Exchange energy change after final integration :     -0.000006892 Eh
Total energy after final integration           :   -874.121557470 Eh
             **** ENERGY FILE WAS UPDATED (C:\Users\jabreumiranda\Radioprotection_Pipeline_Project\06_Quantum_DFT_ORCA\CHEMBL4952776_neutral_opt.en.tmp) ****

----------------
TOTAL SCF ENERGY
----------------

Total Energy       :       -874.12155746971700 Eh          -23786.05684 eV

Components:
Nuclear Repulsion  :       1446.82875524198403 Eh           39370.21197 eV
Electronic Energy  :      -2320.91706971489566 Eh          -63155.36422 eV
One Electron Energy:      -4055.84937433325194 Eh         -110365.27234 eV
Two Electron Energy:       1734.93230461835651 Eh           47209.90811 eV
CPCM Dielectric    :         -0.03323610439130 Eh              -0.90440 eV

Virial components:
Potential Energy   :      -1739.49028957403971 Eh          -47333.93719 eV
Kinetic Energy     :        865.36873210432259 Eh           23547.88035 eV
Virial Ratio       :          2.01011456162058

DFT components:
N(Alpha)           :       72.000048610491 electrons
N(Beta)            :       72.000048610491 electrons
N(Total)           :      144.000097220981 electrons
E(X)               :      -94.955811919552 Eh       
E(C)               :       -5.775907964279 Eh       
E(XC)              :     -100.731719883831 Eh       

CPCM Solvation Model Properties:
Surface-charge          :         -0.02840936522748
Corrected charge        :          0.00000000000000
Outlying charge corr.   :          0.00004208200329 Eh               0.00115 eV
Free-energy (cav+disp)  :  This term is not implemented in the current solvation scheme

---------------
SCF CONVERGENCE
---------------

  Last Energy change         ...   -7.9049e-09  Tolerance :   1.0000e-08
  Last MAX-Density change    ...    8.2675e-06  Tolerance :   1.0000e-07
  Last RMS-Density change    ...    2.4843e-07  Tolerance :   5.0000e-09
  Last DIIS Error            ...    1.5070e-03  Tolerance :   5.0000e-07
  Last Orbital Gradient      ...    1.2308e-06  Tolerance :   1.0000e-05
  Last Orbital Rotation      ...    3.6776e-06  Tolerance :   1.0000e-05


----------------
ORBITAL ENERGIES
----------------

  NO   OCC          E(Eh)            E(eV) 
   0   2.0000     -14.378320      -391.2540 
   1   2.0000     -14.372544      -391.0968 
   2   2.0000     -14.307161      -389.3176 
   3   2.0000     -14.305136      -389.2626 
   4   2.0000     -10.261092      -279.2185 
   5   2.0000     -10.256566      -279.0953 
   6   2.0000     -10.222760      -278.1755 
   7   2.0000     -10.217270      -278.0260 
   8   2.0000     -10.210489      -277.8415 
   9   2.0000     -10.207341      -277.7559 
  10   2.0000     -10.204066      -277.6668 
  11   2.0000     -10.201938      -277.6089 
  12   2.0000     -10.195659      -277.4380 
  13   2.0000     -10.195209      -277.4257 
  14   2.0000     -10.191607      -277.3277 
  15   2.0000     -10.191137      -277.3149 
  16   2.0000     -10.190988      -277.3109 
  17   2.0000     -10.189613      -277.2735 
  18   2.0000     -10.184736      -277.1407 
  19   2.0000     -10.184406      -277.1318 
  20   2.0000     -10.181997      -277.0662 
  21   2.0000      -1.018771       -27.7222 
  22   2.0000      -1.012858       -27.5613 
  23   2.0000      -0.872856       -23.7516 
  24   2.0000      -0.866977       -23.5916 
  25   2.0000      -0.863181       -23.4883 
  26   2.0000      -0.849768       -23.1234 
  27   2.0000      -0.833847       -22.6901 
  28   2.0000      -0.766562       -20.8592 
  29   2.0000      -0.737744       -20.0750 
  30   2.0000      -0.730010       -19.8646 
  31   2.0000      -0.719792       -19.5865 
  32   2.0000      -0.657008       -17.8781 
  33   2.0000      -0.632937       -17.2231 
  34   2.0000      -0.622177       -16.9303 
  35   2.0000      -0.614123       -16.7111 
  36   2.0000      -0.596762       -16.2387 
  37   2.0000      -0.595655       -16.2086 
  38   2.0000      -0.583523       -15.8785 
  39   2.0000      -0.572319       -15.5736 
  40   2.0000      -0.543271       -14.7832 
  41   2.0000      -0.538376       -14.6500 
  42   2.0000      -0.508219       -13.8293 
  43   2.0000      -0.501414       -13.6442 
  44   2.0000      -0.491231       -13.3671 
  45   2.0000      -0.477705       -12.9990 
  46   2.0000      -0.456608       -12.4249 
  47   2.0000      -0.452776       -12.3207 
  48   2.0000      -0.450234       -12.2515 
  49   2.0000      -0.449656       -12.2358 
  50   2.0000      -0.441303       -12.0085 
  51   2.0000      -0.436444       -11.8763 
  52   2.0000      -0.429942       -11.6993 
  53   2.0000      -0.427312       -11.6277 
  54   2.0000      -0.382175       -10.3995 
  55   2.0000      -0.377678       -10.2771 
  56   2.0000      -0.370501       -10.0818 
  57   2.0000      -0.366365        -9.9693 
  58   2.0000      -0.363958        -9.9038 
  59   2.0000      -0.362145        -9.8545 
  60   2.0000      -0.355381        -9.6704 
  61   2.0000      -0.342409        -9.3174 
  62   2.0000      -0.321781        -8.7561 
  63   2.0000      -0.311093        -8.4653 
  64   2.0000      -0.307362        -8.3637 
  65   2.0000      -0.305012        -8.2998 
  66   2.0000      -0.279885        -7.6161 
  67   2.0000      -0.276401        -7.5212 
  68   2.0000      -0.259915        -7.0727 
  69   2.0000      -0.231821        -6.3082 
  70   2.0000      -0.228218        -6.2101 
  71   2.0000      -0.213185        -5.8011 
  72   0.0000      -0.045867        -1.2481 
  73   0.0000      -0.021871        -0.5952 
  74   0.0000       0.009184         0.2499 
  75   0.0000       0.022274         0.6061 
  76   0.0000       0.045311         1.2330 
  77   0.0000       0.063833         1.7370 
  78   0.0000       0.074653         2.0314 
  79   0.0000       0.075283         2.0486 
  80   0.0000       0.080638         2.1943 
  81   0.0000       0.085434         2.3248 
  82   0.0000       0.096023         2.6129 
*Only the first 10 virtual orbitals were printed.

                    ********************************
                    * MULLIKEN POPULATION ANALYSIS *
                    ********************************

-----------------------
MULLIKEN ATOMIC CHARGES
-----------------------
   0 C :    0.004849
   1 C :   -0.001503
   2 C :   -0.091662
   3 C :    0.106348
   4 N :   -0.026105
   5 C :    0.028255
   6 C :    0.119786
   7 C :   -0.052526
   8 C :   -0.080258
   9 C :    0.109966
  10 N :   -0.020052
  11 C :    0.037674
  12 C :   -0.032096
  13 C :   -0.033689
  14 C :   -0.033899
  15 N :   -0.160716
  16 C :    0.049324
  17 C :   -0.146772
  18 N :   -0.155552
  19 C :    0.063248
  20 C :   -0.104344
  21 H :   -0.005205
  22 H :   -0.001556
  23 H :   -0.015960
  24 H :    0.156268
  25 H :   -0.014885
  26 H :   -0.010229
  27 H :    0.161551
  28 H :    0.019699
  29 H :    0.046888
  30 H :    0.046450
  31 H :    0.046306
  32 H :    0.047178
  33 H :   -0.028675
  34 H :   -0.028106
Sum of atomic charges:    0.0000000

--------------------------------
MULLIKEN REDUCED ORBITAL CHARGES
--------------------------------
  0 C s       :     3.167674  s :     3.167674
      pz      :     0.953536  p :     2.792595
      px      :     0.850798
      py      :     0.988261
      dz2     :     0.007700  d :     0.034881
      dxz     :     0.008941
      dyz     :     0.005169
      dx2y2   :     0.007111
      dxy     :     0.005959

  1 C s       :     3.163255  s :     3.163255
      pz      :     0.947900  p :     2.802970
      px      :     0.880531
      py      :     0.974538
      dz2     :     0.007333  d :     0.035278
      dxz     :     0.009602
      dyz     :     0.004827
      dx2y2   :     0.006587
      dxy     :     0.006929

  2 C s       :     3.339597  s :     3.339597
      pz      :     0.844055  p :     2.717859
      px      :     0.934710
      py      :     0.939095
      dz2     :     0.005465  d :     0.034206
      dxz     :     0.009629
      dyz     :     0.004200
      dx2y2   :     0.006673
      dxy     :     0.008238

  3 C s       :     3.021096  s :     3.021096
      pz      :     1.010107  p :     2.812448
      px      :     0.791214
      py      :     1.011128
      dz2     :     0.011483  d :     0.060107
      dxz     :     0.013768
      dyz     :     0.006290
      dx2y2   :     0.015022
      dxy     :     0.013545

  4 N s       :     3.324777  s :     3.324777
      pz      :     1.212247  p :     3.677607
      px      :     1.078332
      py      :     1.387028
      dz2     :     0.003769  d :     0.023721
      dxz     :     0.006793
      dyz     :     0.003322
      dx2y2   :     0.004210
      dxy     :     0.005627

  5 C s       :     3.092254  s :     3.092254
      pz      :     0.943649  p :     2.799827
      px      :     0.901945
      py      :     0.954233
      dz2     :     0.018369  d :     0.079663
      dxz     :     0.018965
      dyz     :     0.011530
      dx2y2   :     0.016011
      dxy     :     0.014788

  6 C s       :     3.068586  s :     3.068586
      pz      :     0.894984  p :     2.770921
      px      :     0.906057
      py      :     0.969880
      dz2     :     0.009396  d :     0.040706
      dxz     :     0.009017
      dyz     :     0.005773
      dx2y2   :     0.009139
      dxy     :     0.007382

  7 C s       :     3.266630  s :     3.266630
      pz      :     0.925955  p :     2.751672
      px      :     0.864347
      py      :     0.961369
      dz2     :     0.005886  d :     0.034223
      dxz     :     0.009876
      dyz     :     0.004259
      dx2y2   :     0.006548
      dxy     :     0.007654

  8 C s       :     3.347200  s :     3.347200
      pz      :     0.874064  p :     2.698671
      px      :     0.884289
      py      :     0.940318
      dz2     :     0.005503  d :     0.034387
      dxz     :     0.010376
      dyz     :     0.004285
      dx2y2   :     0.005979
      dxy     :     0.008246

  9 C s       :     3.019516  s :     3.019516
      pz      :     0.958605  p :     2.809974
      px      :     0.856323
      py      :     0.995047
      dz2     :     0.011613  d :     0.060544
      dxz     :     0.014388
      dyz     :     0.006655
      dx2y2   :     0.014409
      dxy     :     0.013479

 10 N s       :     3.325006  s :     3.325006
      pz      :     1.223599  p :     3.671172
      px      :     1.062950
      py      :     1.384622
      dz2     :     0.004732  d :     0.023874
      dxz     :     0.005988
      dyz     :     0.003440
      dx2y2   :     0.004687
      dxy     :     0.005027

 11 C s       :     3.082447  s :     3.082447
      pz      :     0.918477  p :     2.800695
      px      :     0.949542
      py      :     0.932676
      dz2     :     0.018600  d :     0.079183
      dxz     :     0.017340
      dyz     :     0.012021
      dx2y2   :     0.016887
      dxy     :     0.014335

 12 C s       :     3.167569  s :     3.167569
      pz      :     0.968963  p :     2.822451
      px      :     0.839405
      py      :     1.014084
      dz2     :     0.006405  d :     0.042076
      dxz     :     0.009886
      dyz     :     0.006620
      dx2y2   :     0.009546
      dxy     :     0.009619

 13 C s       :     3.068999  s :     3.068999
      pz      :     1.015161  p :     2.928011
      px      :     1.001664
      py      :     0.911186
      dz2     :     0.005307  d :     0.036679
      dxz     :     0.006330
      dyz     :     0.008637
      dx2y2   :     0.008148
      dxy     :     0.008257

 14 C s       :     3.069387  s :     3.069387
      pz      :     0.936303  p :     2.927834
      px      :     0.992338
      py      :     0.999194
      dz2     :     0.008621  d :     0.036678
      dxz     :     0.007135
      dyz     :     0.007241
      dx2y2   :     0.006201
      dxy     :     0.007481

 15 N s       :     3.459087  s :     3.459087
      pz      :     1.392292  p :     3.672240
      px      :     0.959651
      py      :     1.320297
      dz2     :     0.004765  d :     0.029389
      dxz     :     0.009597
      dyz     :     0.004458
      dx2y2   :     0.003395
      dxy     :     0.007173

 16 C s       :     3.032963  s :     3.032963
      pz      :     1.002822  p :     2.855716
      px      :     0.835832
      py      :     1.017063
      dz2     :     0.012359  d :     0.061997
      dxz     :     0.015486
      dyz     :     0.007473
      dx2y2   :     0.013861
      dxy     :     0.012817

 17 C s       :     3.426421  s :     3.426421
      pz      :     0.819025  p :     2.686969
      px      :     0.961928
      py      :     0.906016
      dz2     :     0.005894  d :     0.033382
      dxz     :     0.008548
      dyz     :     0.004492
      dx2y2   :     0.006979
      dxy     :     0.007469

 18 N s       :     3.449629  s :     3.449629
      pz      :     1.376413  p :     3.677247
      px      :     0.985113
      py      :     1.315721
      dz2     :     0.005248  d :     0.028676
      dxz     :     0.008608
      dyz     :     0.004576
      dx2y2   :     0.003647
      dxy     :     0.006598

 19 C s       :     3.031054  s :     3.031054
      pz      :     0.998342  p :     2.843694
      px      :     0.830215
      py      :     1.015136
      dz2     :     0.011730  d :     0.062005
      dxz     :     0.015161
      dyz     :     0.006754
      dx2y2   :     0.014926
      dxy     :     0.013434

 20 C s       :     3.349669  s :     3.349669
      pz      :     0.841728  p :     2.720686
      px      :     0.959539
      py      :     0.919419
      dz2     :     0.005636  d :     0.033989
      dxz     :     0.008980
      dyz     :     0.004384
      dx2y2   :     0.007229
      dxy     :     0.007760

 21 H s       :     0.982047  s :     0.982047
      pz      :     0.005322  p :     0.023158
      px      :     0.013022
      py      :     0.004814

 22 H s       :     0.978392  s :     0.978392
      pz      :     0.006113  p :     0.023164
      px      :     0.011338
      py      :     0.005713

 23 H s       :     0.992600  s :     0.992600
      pz      :     0.011764  p :     0.023359
      px      :     0.003232
      py      :     0.008364

 24 H s       :     0.799675  s :     0.799675
      pz      :     0.019507  p :     0.044057
      px      :     0.009880
      py      :     0.014670

 25 H s       :     0.991637  s :     0.991637
      pz      :     0.008766  p :     0.023248
      px      :     0.008096
      py      :     0.006386

 26 H s       :     0.986845  s :     0.986845
      pz      :     0.010577  p :     0.023383
      px      :     0.004804
      py      :     0.008002

 27 H s       :     0.794547  s :     0.794547
      pz      :     0.014619  p :     0.043902
      px      :     0.016066
      py      :     0.013217

 28 H s       :     0.957468  s :     0.957468
      pz      :     0.011712  p :     0.022833
      px      :     0.002722
      py      :     0.008399

 29 H s       :     0.929474  s :     0.929474
      pz      :     0.010998  p :     0.023639
      px      :     0.008844
      py      :     0.003797

 30 H s       :     0.929957  s :     0.929957
      pz      :     0.006458  p :     0.023593
      px      :     0.004670
      py      :     0.012466

 31 H s       :     0.930098  s :     0.930098
      pz      :     0.014570  p :     0.023596
      px      :     0.004468
      py      :     0.004558

 32 H s       :     0.929192  s :     0.929192
      pz      :     0.004430  p :     0.023629
      px      :     0.009255
      py      :     0.009945

 33 H s       :     1.005091  s :     1.005091
      pz      :     0.010793  p :     0.023584
      px      :     0.004698
      py      :     0.008092

 34 H s       :     1.004939  s :     1.004939
      pz      :     0.011595  p :     0.023167
      px      :     0.003391
      py      :     0.008181



                     *******************************
                     * LOEWDIN POPULATION ANALYSIS *
                     *******************************

----------------------
LOEWDIN ATOMIC CHARGES
----------------------
   0 C :   -0.050641
   1 C :   -0.039732
   2 C :   -0.051097
   3 C :   -0.003700
   4 N :    0.077880
   5 C :    0.043031
   6 C :   -0.066200
   7 C :   -0.017554
   8 C :   -0.040941
   9 C :    0.000498
  10 N :    0.081180
  11 C :    0.053285
  12 C :   -0.036244
  13 C :   -0.028525
  14 C :   -0.028510
  15 N :   -0.183573
  16 C :   -0.040029
  17 C :   -0.022930
  18 N :   -0.179036
  19 C :   -0.043750
  20 C :   -0.038381
  21 H :    0.030844
  22 H :    0.031745
  23 H :    0.035961
  24 H :    0.106202
  25 H :    0.028946
  26 H :    0.040451
  27 H :    0.111791
  28 H :    0.040772
  29 H :    0.033794
  30 H :    0.029312
  31 H :    0.029267
  32 H :    0.033877
  33 H :    0.032532
  34 H :    0.029473

-------------------------------
LOEWDIN REDUCED ORBITAL CHARGES
-------------------------------
  0 C s       :     2.860030  s :     2.860030
      pz      :     1.038326  p :     3.100113
      px      :     1.041821
      py      :     1.019966
      dz2     :     0.019071  d :     0.090498
      dxz     :     0.024178
      dyz     :     0.014118
      dx2y2   :     0.018142
      dxy     :     0.014988

  1 C s       :     2.860224  s :     2.860224
      pz      :     1.034519  p :     3.088396
      px      :     1.042811
      py      :     1.011066
      dz2     :     0.018110  d :     0.091112
      dxz     :     0.025824
      dyz     :     0.012865
      dx2y2   :     0.017219
      dxy     :     0.017095

  2 C s       :     2.859170  s :     2.859170
      pz      :     1.030584  p :     3.102193
      px      :     1.049289
      py      :     1.022320
      dz2     :     0.013644  d :     0.089734
      dxz     :     0.026253
      dyz     :     0.010222
      dx2y2   :     0.018993
      dxy     :     0.020622

  3 C s       :     2.824495  s :     2.824495
      pz      :     1.048966  p :     3.030319
      px      :     0.950007
      py      :     1.031346
      dz2     :     0.029133  d :     0.148887
      dxz     :     0.033339
      dyz     :     0.017093
      dx2y2   :     0.038760
      dxy     :     0.030561

  4 N s       :     3.030471  s :     3.030471
      pz      :     1.276951  p :     3.831124
      px      :     1.164197
      py      :     1.389976
      dz2     :     0.009405  d :     0.060525
      dxz     :     0.018156
      dyz     :     0.008243
      dx2y2   :     0.011225
      dxy     :     0.013496

  5 C s       :     2.837760  s :     2.837760
      pz      :     0.955907  p :     2.937311
      px      :     1.024812
      py      :     0.956592
      dz2     :     0.040080  d :     0.181898
      dxz     :     0.046687
      dyz     :     0.027258
      dx2y2   :     0.035180
      dxy     :     0.032693

  6 C s       :     2.845513  s :     2.845513
      pz      :     1.055141  p :     3.112557
      px      :     1.018958
      py      :     1.038458
      dz2     :     0.023449  d :     0.108130
      dxz     :     0.025842
      dyz     :     0.015698
      dx2y2   :     0.024263
      dxy     :     0.018878

  7 C s       :     2.859939  s :     2.859939
      pz      :     1.021510  p :     3.069040
      px      :     1.046592
      py      :     1.000938
      dz2     :     0.014761  d :     0.088575
      dxz     :     0.026380
      dyz     :     0.010758
      dx2y2   :     0.017713
      dxy     :     0.018963

  8 C s       :     2.858280  s :     2.858280
      pz      :     1.024942  p :     3.092609
      px      :     1.052443
      py      :     1.015225
      dz2     :     0.014133  d :     0.090051
      dxz     :     0.027305
      dyz     :     0.010897
      dx2y2   :     0.017519
      dxy     :     0.020197

  9 C s       :     2.824097  s :     2.824097
      pz      :     1.059429  p :     3.025881
      px      :     0.934550
      py      :     1.031903
      dz2     :     0.028350  d :     0.149524
      dxz     :     0.036013
      dyz     :     0.017496
      dx2y2   :     0.036719
      dxy     :     0.030947

 10 N s       :     3.029098  s :     3.029098
      pz      :     1.279696  p :     3.828688
      px      :     1.161913
      py      :     1.387079
      dz2     :     0.011901  d :     0.061034
      dxz     :     0.015787
      dyz     :     0.008891
      dx2y2   :     0.012561
      dxy     :     0.011894

 11 C s       :     2.854339  s :     2.854339
      pz      :     0.942205  p :     2.914343
      px      :     1.032941
      py      :     0.939198
      dz2     :     0.041877  d :     0.178032
      dxz     :     0.039531
      dyz     :     0.028912
      dx2y2   :     0.037913
      dxy     :     0.029799

 12 C s       :     2.833508  s :     2.833508
      pz      :     1.064112  p :     3.100185
      px      :     0.949388
      py      :     1.086685
      dz2     :     0.015303  d :     0.102550
      dxz     :     0.024529
      dyz     :     0.016417
      dx2y2   :     0.023577
      dxy     :     0.022724

 13 C s       :     2.823170  s :     2.823170
      pz      :     1.071468  p :     3.114582
      px      :     1.053125
      py      :     0.989990
      dz2     :     0.012187  d :     0.090772
      dxz     :     0.016213
      dyz     :     0.021702
      dx2y2   :     0.021178
      dxy     :     0.019492

 14 C s       :     2.823203  s :     2.823203
      pz      :     1.016288  p :     3.114534
      px      :     1.045210
      py      :     1.053036
      dz2     :     0.023571  d :     0.090773
      dxz     :     0.017164
      dyz     :     0.017400
      dx2y2   :     0.014008
      dxy     :     0.018630

 15 N s       :     3.234133  s :     3.234133
      pz      :     1.431778  p :     3.888520
      px      :     1.116588
      py      :     1.340154
      dz2     :     0.007147  d :     0.060920
      dxz     :     0.022349
      dyz     :     0.006307
      dx2y2   :     0.008793
      dxy     :     0.016324

 16 C s       :     2.831371  s :     2.831371
      pz      :     1.013702  p :     3.056636
      px      :     1.030798
      py      :     1.012137
      dz2     :     0.029239  d :     0.152022
      dxz     :     0.040168
      dyz     :     0.019372
      dx2y2   :     0.033458
      dxy     :     0.029784

 17 C s       :     2.861569  s :     2.861569
      pz      :     1.021607  p :     3.073866
      px      :     1.047177
      py      :     1.005082
      dz2     :     0.014661  d :     0.087496
      dxz     :     0.023921
      dyz     :     0.011084
      dx2y2   :     0.019073
      dxy     :     0.018757

 18 N s       :     3.230061  s :     3.230061
      pz      :     1.423885  p :     3.889325
      px      :     1.127020
      py      :     1.338420
      dz2     :     0.008139  d :     0.059650
      dxz     :     0.020478
      dyz     :     0.007060
      dx2y2   :     0.008852
      dxy     :     0.015120

 19 C s       :     2.831320  s :     2.831320
      pz      :     1.030764  p :     3.059770
      px      :     1.011579
      py      :     1.017427
      dz2     :     0.029259  d :     0.152661
      dxz     :     0.037676
      dyz     :     0.018546
      dx2y2   :     0.036846
      dxy     :     0.030333

 20 C s       :     2.865201  s :     2.865201
      pz      :     1.022758  p :     3.084403
      px      :     1.055393
      py      :     1.006252
      dz2     :     0.013969  d :     0.088776
      dxz     :     0.024713
      dyz     :     0.010578
      dx2y2   :     0.019942
      dxy     :     0.019575

 21 H s       :     0.900745  s :     0.900745
      pz      :     0.016430  p :     0.068411
      px      :     0.036806
      py      :     0.015175

 22 H s       :     0.900088  s :     0.900088
      pz      :     0.018491  p :     0.068167
      px      :     0.032158
      py      :     0.017519

 23 H s       :     0.893657  s :     0.893657
      pz      :     0.034167  p :     0.070382
      px      :     0.011288
      py      :     0.024927

 24 H s       :     0.768518  s :     0.768518
      pz      :     0.054441  p :     0.125280
      px      :     0.027112
      py      :     0.043727

 25 H s       :     0.900750  s :     0.900750
      pz      :     0.026264  p :     0.070303
      px      :     0.024383
      py      :     0.019655

 26 H s       :     0.889231  s :     0.889231
      pz      :     0.031047  p :     0.070318
      px      :     0.015330
      py      :     0.023940

 27 H s       :     0.763395  s :     0.763395
      pz      :     0.041827  p :     0.124814
      px      :     0.043154
      py      :     0.039833

 28 H s       :     0.888666  s :     0.888666
      pz      :     0.034850  p :     0.070562
      px      :     0.009736
      py      :     0.025976

 29 H s       :     0.896247  s :     0.896247
      pz      :     0.032207  p :     0.069958
      px      :     0.026746
      py      :     0.011006

 30 H s       :     0.899948  s :     0.899948
      pz      :     0.019481  p :     0.070739
      px      :     0.015207
      py      :     0.036051

 31 H s       :     0.899995  s :     0.899995
      pz      :     0.041889  p :     0.070739
      px      :     0.014557
      py      :     0.014293

 32 H s       :     0.896178  s :     0.896178
      pz      :     0.012796  p :     0.069944
      px      :     0.027798
      py      :     0.029350

 33 H s       :     0.895671  s :     0.895671
      pz      :     0.032028  p :     0.071797
      px      :     0.015287
      py      :     0.024481

 34 H s       :     0.900580  s :     0.900580
      pz      :     0.033897  p :     0.069947
      px      :     0.011512
      py      :     0.024539



                      *****************************
                      * MAYER POPULATION ANALYSIS *
                      *****************************

  NA   - Mulliken gross atomic population
  ZA   - Total nuclear charge
  QA   - Mulliken gross atomic charge
  VA   - Mayer's total valence
  BVA  - Mayer's bonded valence
  FA   - Mayer's free valence

  ATOM       NA         ZA         QA         VA         BVA        FA
  0 C      5.9952     6.0000     0.0048     3.7647     3.7647     0.0000
  1 C      6.0015     6.0000    -0.0015     3.7863     3.7863     0.0000
  2 C      6.0917     6.0000    -0.0917     3.7637     3.7637     0.0000
  3 C      5.8937     6.0000     0.1063     3.8689     3.8689     0.0000
  4 N      7.0261     7.0000    -0.0261     3.3811     3.3811     0.0000
  5 C      5.9717     6.0000     0.0283     4.0989     4.0989    -0.0000
  6 C      5.8802     6.0000     0.1198     3.5592     3.5592     0.0000
  7 C      6.0525     6.0000    -0.0525     3.8020     3.8020     0.0000
  8 C      6.0803     6.0000    -0.0803     3.7438     3.7438     0.0000
  9 C      5.8900     6.0000     0.1100     3.8592     3.8592     0.0000
 10 N      7.0201     7.0000    -0.0201     3.3902     3.3902    -0.0000
 11 C      5.9623     6.0000     0.0377     4.1611     4.1611     0.0000
 12 C      6.0321     6.0000    -0.0321     3.9356     3.9356     0.0000
 13 C      6.0337     6.0000    -0.0337     3.9435     3.9435    -0.0000
 14 C      6.0339     6.0000    -0.0339     3.9434     3.9434    -0.0000
 15 N      7.1607     7.0000    -0.1607     3.0511     3.0511     0.0000
 16 C      5.9507     6.0000     0.0493     4.0392     4.0392     0.0000
 17 C      6.1468     6.0000    -0.1468     3.7517     3.7517     0.0000
 18 N      7.1556     7.0000    -0.1556     3.0906     3.0906    -0.0000
 19 C      5.9368     6.0000     0.0632     3.9753     3.9753    -0.0000
 20 C      6.1043     6.0000    -0.1043     3.8015     3.8015    -0.0000
 21 H      1.0052     1.0000    -0.0052     0.9789     0.9789     0.0000
 22 H      1.0016     1.0000    -0.0016     0.9794     0.9794    -0.0000
 23 H      1.0160     1.0000    -0.0160     0.9881     0.9881    -0.0000
 24 H      0.8437     1.0000     0.1563     0.9851     0.9851    -0.0000
 25 H      1.0149     1.0000    -0.0149     1.0174     1.0174     0.0000
 26 H      1.0102     1.0000    -0.0102     0.9887     0.9887    -0.0000
 27 H      0.8384     1.0000     0.1616     0.9860     0.9860     0.0000
 28 H      0.9803     1.0000     0.0197     1.0007     1.0007     0.0000
 29 H      0.9531     1.0000     0.0469     0.9809     0.9809    -0.0000
 30 H      0.9536     1.0000     0.0464     0.9873     0.9873     0.0000
 31 H      0.9537     1.0000     0.0463     0.9873     0.9873    -0.0000
 32 H      0.9528     1.0000     0.0472     0.9808     0.9808     0.0000
 33 H      1.0287     1.0000    -0.0287     1.0009     1.0009    -0.0000
 34 H      1.0281     1.0000    -0.0281     0.9924     0.9924    -0.0000

  Mayer bond orders larger than 0.100000
B(  0-C ,  1-C ) :   1.3262 B(  0-C , 20-C ) :   1.3849 B(  0-C , 21-H ) :   0.9915 
B(  1-C ,  2-C ) :   1.3760 B(  1-C , 22-H ) :   0.9864 B(  2-C ,  3-C ) :   1.2811 
B(  2-C , 20-C ) :   0.1172 B(  2-C , 23-H ) :   1.0227 B(  3-C ,  4-N ) :   1.1667 
B(  3-C , 19-C ) :   1.2716 B(  4-N ,  5-C ) :   1.2426 B(  4-N , 24-H ) :   0.9026 
B(  5-C ,  6-C ) :   0.9902 B(  5-C , 18-N ) :   1.6480 B(  6-C ,  7-C ) :   1.3063 
B(  6-C , 17-C ) :   1.2840 B(  7-C ,  8-C ) :   1.3747 B(  7-C , 25-H ) :   0.9869 
B(  8-C ,  9-C ) :   1.2630 B(  8-C , 17-C ) :   0.1089 B(  8-C , 26-H ) :   1.0258 
B(  9-C , 10-N ) :   1.1729 B(  9-C , 16-C ) :   1.2745 B( 10-N , 11-C ) :   1.2358 
B( 10-N , 27-H ) :   0.9045 B( 11-C , 12-C ) :   1.0429 B( 11-C , 15-N ) :   1.6351 
B( 12-C , 13-C ) :   0.9582 B( 12-C , 14-C ) :   0.9580 B( 12-C , 28-H ) :   0.9338 
B( 13-C , 14-C ) :   1.0363 B( 13-C , 29-H ) :   0.9509 B( 13-C , 30-H ) :   0.9585 
B( 14-C , 31-H ) :   0.9586 B( 14-C , 32-H ) :   0.9508 B( 15-N , 16-C ) :   1.3278 
B( 16-C , 17-C ) :   1.2953 B( 17-C , 33-H ) :   1.0160 B( 18-N , 19-C ) :   1.3276 
B( 19-C , 20-C ) :   1.2771 B( 20-C , 34-H ) :   1.0173 

-------
TIMINGS
-------

Total SCF time: 0 days 0 hours 3 min 14 sec 

Total time                  ....     194.631 sec
Sum of individual times     ....     187.950 sec  ( 96.6%)

SCF preparation             ....       0.653 sec  (  0.3%)
Fock matrix formation       ....     185.864 sec  ( 95.5%)
  Startup                   ....       0.011 sec  (  0.0% of F)
  Split-RI-J                ....      17.454 sec  (  9.4% of F)
  Chain of spheres X        ....     130.233 sec  ( 70.1% of F)
  XC integration            ....      22.119 sec  ( 11.9% of F)
    Basis function eval.    ....       7.540 sec  ( 34.1% of XC)
    Density eval.           ....       4.712 sec  ( 21.3% of XC)
    XC-Functional eval.     ....       0.742 sec  (  3.4% of XC)
    XC-Potential eval.      ....       8.180 sec  ( 37.0% of XC)
  CPCM terms                ....      22.274 sec  ( 12.0% of F)
Diagonalization             ....       0.000 sec  (  0.0%)
Density matrix formation    ....       0.293 sec  (  0.2%)
Total Energy calculation    ....       0.151 sec  (  0.1%)
Population analysis         ....       0.080 sec  (  0.0%)
Orbital Transformation      ....       0.066 sec  (  0.0%)
Orbital Orthonormalization  ....       0.000 sec  (  0.0%)
DIIS solution               ....       0.442 sec  (  0.2%)
SOSCF solution              ....       0.401 sec  (  0.2%)
Finished LeanSCF after 194.9 sec

Maximum memory used throughout the entire LEANSCF-calculation: 98.5 MB

------------------------------------------------------------------------------
                         ORCA PROPERTY INTEGRAL CALCULATIONS
------------------------------------------------------------------------------

GBWName                                   ... C:\Users\jabreumiranda\Radioprotection_Pipeline_Project\06_Quantum_DFT_ORCA\CHEMBL4952776_neutral_opt.gbw
Number of atoms                           ...     35
Number of basis functions                 ...    364
Max core memory                           ...   2000 MB

Dipole integrals                          ... YES
Quadrupole integrals                      ...  NO
Linear momentum integrals                 ...  NO
Angular momentum integrals                ...  NO
Higher moments length integrals           ...  NO
Higher moments velocity integrals         ...  NO
Kinetic energy integrals                  ...  NO
GIAO right hand sides                     ...  NO
GIAO dipole derivative integrals          ...  NO
SOC integrals                             ...  NO
EPR diamagnetic integrals (GIAO)          ...  NO
EPR gauge integrals                       ...  NO
Field gradient integrals                  ...  NO (   0 nuclei)
Spin-dipole/Fermi contact integrals       ...  NO (   0 nuclei)
Contact density integrals                 ...  NO (   0 nuclei)
Nucleus-orbit integrals                   ...  NO (   0 nuclei)
Geometric perturbations                   ...  NO (  35 nuclei)

Choice of electric origin   ... Center of mass
Position of electric origin ... ( -0.6101, -0.0302, -0.0814) 
Choice of magnetic origin   ... GIAO
Position of magnetic origin ... (  0.0000,  0.0000,  0.0000) 

Calculating integrals                     ... Electric Dipole (Length)     done (  0.0 sec)

Property integrals calculated in   0.0 sec

Maximum memory used throughout the entire PROPINT-calculation: 23.9 MB


-------------------------------------------------------------------------------
                          DFT DISPERSION CORRECTION                            
                                                                               
                              DFTD3 V3.1  Rev 1                                
                          USING Becke-Johnson damping                          
-------------------------------------------------------------------------------
The B3LYP functional is recognized
Active option DFTDOPT                   ...         4   

molecular C6(AA) [au] = 14960.462529 


            DFT-D V3
 parameters
 s6 scaling factor         :     1.0000 
 a1 scaling factor         :     0.3981 
 s8 scaling factor         :     1.9889 
 a2 scaling factor         :     4.4211 
 ad hoc parameters k1-k3   :    16.0000     1.3333    -4.0000 

 Edisp/kcal,au: -46.438750151801  -0.074004851110 
 E6   /kcal   : -21.623480872 
 E8   /kcal   : -24.815269280 
 % E8         :  53.436557184 

-------------------------   ----------------
Dispersion correction           -0.074004851
-------------------------   ----------------


-------------------------   --------------------
FINAL SINGLE POINT ENERGY      -874.195562320827
-------------------------   --------------------

------------------------------------------------------------------------------
                         ORCA SCF GRADIENT CALCULATION
------------------------------------------------------------------------------

Nuc. rep. gradient        (SHARK) ... done (  0.0 sec)
HCore & Overlap gradient  (SHARK) ... done (  0.9 sec)
Split-RIJ-J gradient      (SHARK) ... done (  5.1 sec)
COSX-gradient                     ... done ( 76.3 sec)
XC gradient                       ... done ( 12.8 sec)
CPCM gradient                     ... done (  4.9 sec)
Dispersion correction             ... done (  0.1 sec)

-------------------
DISPERSION GRADIENT
-------------------

   1   C   :   -0.000086004   -0.000074290   -0.000109599
   2   C   :   -0.000020271    0.000073826    0.000102092
   3   C   :   -0.000277557    0.000150826    0.000193329
   4   C   :    0.001248253   -0.000858932   -0.001122497
   5   N   :   -0.000641662   -0.000334869   -0.000510164
   6   C   :   -0.004107394    0.000213906    0.000035102
   7   C   :    0.000412922   -0.000041187   -0.000031317
   8   C   :    0.000311564   -0.000034385   -0.000027997
   9   C   :   -0.000015220   -0.000204687   -0.000286465
  10   C   :    0.000871438    0.001035740    0.001500584
  11   N   :   -0.000857743    0.000228994    0.000264639
  12   C   :   -0.004123439   -0.000703080   -0.001244706
  13   C   :    0.000255478    0.000149009    0.000224250
  14   C   :    0.000422360   -0.000082880    0.000189008
  15   C   :    0.000434360    0.000179783    0.000000819
  16   N   :   -0.000188301   -0.000118381   -0.000177100
  17   C   :    0.003463997   -0.000350190   -0.000266725
  18   C   :    0.000167640   -0.000033335   -0.000036063
  19   N   :   -0.000368772    0.000204153    0.000261908
  20   C   :    0.002817275    0.000732103    0.001206764
  21   C   :   -0.000188598   -0.000075118   -0.000117369
  22   H   :   -0.000255054   -0.000058698   -0.000098654
  23   H   :   -0.000230543    0.000097170    0.000121217
  24   H   :   -0.000088127    0.000188591    0.000258428
  25   H   :    0.000033613    0.000188662    0.000266600
  26   H   :    0.000010093   -0.000189889   -0.000264196
  27   H   :    0.000029594   -0.000196858   -0.000272716
  28   H   :    0.000090835   -0.000193681   -0.000264275
  29   H   :    0.000078173    0.000158974    0.000226867
  30   H   :    0.000179631   -0.000103955    0.000138768
  31   H   :    0.000251784   -0.000244728    0.000066883
  32   H   :    0.000268743    0.000126324   -0.000198992
  33   H   :    0.000191381    0.000153616   -0.000045814
  34   H   :    0.000026373    0.000187004    0.000262367
  35   H   :   -0.000116824   -0.000169539   -0.000244974

Difference to translation invariance:
           :   -0.0000000000   -0.0000000000   -0.0000000000

Difference to rotation invariance:
           :   -0.0000000000    0.0000000000    0.0000000000

Norm of the Dispersion gradient    ...    0.0083853798
RMS gradient                       ...    0.0008183293
MAX gradient                       ...    0.0041234389

------------------
CARTESIAN GRADIENT
------------------

   1   C   :   -0.008493681    0.007994724    0.010700896
   2   C   :   -0.005221611   -0.006626039   -0.009580613
   3   C   :    0.006890735    0.002249340    0.003606898
   4   C   :   -0.004985105   -0.013685654   -0.019498472
   5   N   :   -0.015308868   -0.005134408   -0.008127207
   6   C   :    0.009466796   -0.001432962   -0.001442138
   7   C   :   -0.000314315   -0.006225254   -0.008662684
   8   C   :   -0.010904250    0.009758722    0.012937533
   9   C   :    0.016130510   -0.003156222   -0.003352794
  10   C   :   -0.011909759    0.011541853    0.015332805
  11   N   :   -0.017113650    0.002370894    0.002118755
  12   C   :   -0.032078807   -0.013751869   -0.021227702
  13   C   :    0.036426343    0.013033646    0.020490873
  14   C   :   -0.003975898   -0.003832699    0.002605529
  15   C   :   -0.003775428    0.003704538   -0.003188016
  16   N   :   -0.003612216   -0.006049656   -0.008671332
  17   C   :    0.029058969   -0.011018742   -0.013521051
  18   C   :   -0.001576383    0.001549932    0.001892920
  19   N   :   -0.009466552    0.007114086    0.009432636
  20   C   :    0.012126707    0.014998831    0.021759259
  21   C   :    0.007703754   -0.001614741   -0.001841920
  22   H   :    0.003547525    0.000732818    0.001272102
  23   H   :    0.002496810   -0.001475877   -0.001922705
  24   H   :   -0.001266608   -0.002925300   -0.004190122
  25   H   :   -0.002072277   -0.003367832   -0.004721950
  26   H   :    0.001852095   -0.000740669   -0.000964339
  27   H   :   -0.002073841    0.002559660    0.003442166
  28   H   :   -0.003278720    0.003357595    0.004370665
  29   H   :    0.005137986   -0.002018345   -0.002513025
  30   H   :   -0.002994930   -0.000320972   -0.005754799
  31   H   :    0.003787991    0.006250654    0.003993116
  32   H   :    0.003440647    0.001470053    0.007449744
  33   H   :   -0.003174345   -0.005104117   -0.002282544
  34   H   :    0.004672825   -0.003722758   -0.004936156
  35   H   :    0.000857553    0.003516771    0.004993671

Difference to translation invariance:
           :    0.0000000000    0.0000000000    0.0000000000

Difference to rotation invariance:
           :   -0.0002026271    0.0002356958    0.0007599298

Norm of the Cartesian gradient     ...    0.0984034622
RMS gradient                       ...    0.0096031946
MAX gradient                       ...    0.0364263428

-------
TIMINGS
-------

Total SCF gradient time     ....       99.891 sec

Densities                   ....       0.003 sec  (  0.0%)
One electron gradient       ....       0.881 sec  (  0.9%)
RI-J Coulomb gradient       ....       5.058 sec  (  5.1%)
COSX gradient               ....      76.251 sec  ( 76.3%)
XC gradient                 ....      12.777 sec  ( 12.8%)
CPCM gradient               ....       4.854 sec  (  4.9%)
   A-Matrix (El+Nuc)        ....       0.507 sec  (  0.5%)
   Potential                ....       4.347 sec  (  4.4%)

Maximum memory used throughout the entire SCFGRAD-calculation: 52.9 MB
------------------------------------------------------------------------------
                         ORCA GEOMETRY RELAXATION STEP
------------------------------------------------------------------------------

Reading the OPT-File                    .... done
Getting information on internals        .... done
Copying old internal coords+grads       .... done
Making the new internal coordinates     .... (2022 redundants) done
Validating the new internal coordinates .... (2022 redundants) done
Calculating the B-matrix                .... done
Calculating the G,G- and P matrices     .... done
Transforming gradient to internals      .... done
Projecting the internal gradient        .... done
Number of atoms                         ....  35
Number of internal coordinates          .... 206
Current Energy                          ....  -874.195562321 Eh
Current gradient norm                   ....     0.098403462 Eh/bohr
Maximum allowed component of the step   ....  0.300
Current trust radius                    ....  0.300
Evaluating the initial hessian          ....  (Almloef) done
Projecting the Hessian                  .... done
Forming the augmented Hessian           .... done
Diagonalizing the augmented Hessian     .... done
Last element of RFO vector              ....  0.984667612
Lowest eigenvalues of augmented Hessian:
 -0.013141063  0.010003143  0.014819679  0.021016919  0.021961855
Length of the computed step             ....  0.177157334
The final length of the internal step   ....  0.177157334
Converting the step to Cartesian space:
 Initial RMS(Int)=    0.0123431364
Transforming coordinates:
 Iter   0:  RMS(Cart)=    0.0401689969 RMS(Int)=    1.9079984028
done
Storing new coordinates                 .... done

                                .--------------------.
          ----------------------|Geometry convergence|-------------------------
          Item                value                   Tolerance       Converged
          ---------------------------------------------------------------------
          RMS gradient        0.0054205842            0.0001000000      NO
          MAX gradient        0.0420227217            0.0003000000      NO
          RMS step            0.0123431364            0.0020000000      NO
          MAX step            0.1184108956            0.0040000000      NO
          -------------------------------------------------------------------------
          ........................................................
          Max(Bonds)      0.0627      Max(Angles)    1.71
          Max(Dihed)        0.90      Max(Improp)    0.00
          ---------------------------------------------------------------------

The optimization has not yet converged - more geometry cycles are needed


    ---------------------------------------------------------------------------
                         Redundant Internal Coordinates
                            (Angstroem and degrees)

        Definition                    Value    dE/dq     Step     New-Value
    ----------------------------------------------------------------------------
     1. B(C   1,C   0)                1.3974 -0.015516  0.0127    1.4101   
     2. B(C   2,C   1)                1.4000  0.001260 -0.0014    1.3987   
     3. B(C   3,C   2)                1.3963 -0.002434  0.0024    1.3986   
     4. B(N   4,C   3)                1.3706 -0.007887  0.0070    1.3776   
     5. B(C   5,N   4)                1.3784 -0.002526  0.0015    1.3799   
     6. B(C   6,C   5)                1.4695  0.003760 -0.0041    1.4654   
     7. B(C   7,C   6)                1.4076 -0.011682  0.0098    1.4174   
     8. B(C   8,C   7)                1.4022  0.007568 -0.0068    1.3954   
     9. B(C   9,C   8)                1.3927 -0.006271  0.0055    1.3982   
    10. B(N  10,C   9)                1.3704 -0.010619  0.0093    1.3796   
    11. B(C  11,N  10)                1.3699 -0.005673  0.0043    1.3742   
    12. B(C  12,C  11)                1.5542  0.042023 -0.0627    1.4916   
    13. B(C  13,C  12)                1.5056 -0.003548  0.0042    1.5099   
    14. B(C  14,C  13)                1.5026 -0.000284  0.0010    1.5036   
    15. B(C  14,C  12)                1.5056 -0.003887  0.0045    1.5100   
    16. B(N  15,C  11)                1.3147 -0.009449  0.0062    1.3209   
    17. B(C  16,N  15)                1.3734 -0.010125  0.0091    1.3825   
    18. B(C  16,C   9)                1.3886 -0.027149  0.0235    1.4122   
    19. B(C  17,C  16)                1.4042  0.002527 -0.0019    1.4022   
    20. B(C  17,C   6)                1.4064  0.002165 -0.0022    1.4042   
    21. B(N  18,C   5)                1.3230 -0.006855  0.0044    1.3274   
    22. B(C  19,N  18)                1.3721 -0.006391  0.0058    1.3779   
    23. B(C  19,C   3)                1.3874 -0.030307  0.0262    1.4136   
    24. B(C  20,C  19)                1.4020 -0.003992  0.0037    1.4058   
    25. B(C  20,C   0)                1.4010  0.004081 -0.0038    1.3971   
    26. B(H  21,C   0)                1.0874 -0.003837  0.0054    1.0927   
    27. B(H  22,C   1)                1.0883 -0.003431  0.0048    1.0931   
    28. B(H  23,C   2)                1.0843 -0.005202  0.0072    1.0915   
    29. B(H  24,N   4)                1.0075 -0.006131  0.0072    1.0148   
    30. B(H  25,C   7)                1.0910 -0.000161  0.0002    1.0912   
    31. B(H  26,C   8)                1.0842 -0.004755  0.0066    1.0908   
    32. B(H  27,N  10)                1.0084 -0.006256  0.0074    1.0158   
    33. B(H  28,C  12)                1.0862 -0.003378  0.0047    1.0910   
    34. B(H  29,C  13)                1.0847 -0.006339  0.0088    1.0936   
    35. B(H  30,C  13)                1.0830 -0.007912  0.0109    1.0939   
    36. B(H  31,C  14)                1.0829 -0.007977  0.0110    1.0940   
    37. B(H  32,C  14)                1.0848 -0.006273  0.0087    1.0936   
    38. B(H  33,C  17)                1.0817 -0.007387  0.0102    1.0919   
    39. B(H  34,C  20)                1.0840 -0.006158  0.0085    1.0926   
    40. A(C   1,C   0,H  21)          119.79  0.001997   -0.23    119.57   
    41. A(C  20,C   0,H  21)          119.41  0.001689   -0.18    119.24   
    42. A(C   1,C   0,C  20)          120.79 -0.003686    0.41    121.20   
    43. A(C   0,C   1,H  22)          119.34  0.000797   -0.05    119.29   
    44. A(C   2,C   1,H  22)          119.32  0.001988   -0.23    119.09   
    45. A(C   0,C   1,C   2)          121.34 -0.002785    0.28    121.62   
    46. A(C   3,C   2,H  23)          122.15  0.000713   -0.13    122.02   
    47. A(C   1,C   2,H  23)          121.30 -0.000936    0.13    121.43   
    48. A(C   1,C   2,C   3)          116.55  0.000223    0.00    116.56   
    49. A(C   2,C   3,C  19)          123.42  0.004911   -0.58    122.85   
    50. A(N   4,C   3,C  19)          104.08 -0.003461    0.57    104.64   
    51. A(C   2,C   3,N   4)          132.50 -0.001450    0.01    132.51   
    52. A(C   3,N   4,H  24)          125.27 -0.003512    0.48    125.75   
    53. A(C   5,N   4,H  24)          125.70 -0.004616    0.66    126.35   
    54. A(C   3,N   4,C   5)          109.04  0.008128   -1.14    107.90   
    55. A(C   6,C   5,N  18)          125.70  0.005932   -0.68    125.02   
    56. A(N   4,C   5,C   6)          124.61  0.008270   -1.03    123.58   
    57. A(N   4,C   5,N  18)          109.69 -0.014203    1.71    111.40   
    58. A(C   5,C   6,C   7)          118.81  0.002595   -0.29    118.52   
    59. A(C   7,C   6,C  17)          119.04 -0.006918    0.82    119.86   
    60. A(C   5,C   6,C  17)          122.15  0.004323   -0.53    121.62   
    61. A(C   8,C   7,H  25)          118.34 -0.002535    0.44    118.79   
    62. A(C   6,C   7,H  25)          119.11  0.002019   -0.28    118.83   
    63. A(C   6,C   7,C   8)          122.55  0.000516   -0.17    122.38   
    64. A(C   7,C   8,H  26)          121.21  0.000448   -0.07    121.14   
    65. A(C   7,C   8,C   9)          116.30 -0.001528    0.24    116.55   
    66. A(C   9,C   8,H  26)          122.48  0.001080   -0.17    122.31   
    67. A(N  10,C   9,C  16)          104.17 -0.002914    0.45    104.62   
    68. A(C   8,C   9,C  16)          123.26  0.005417   -0.62    122.63   
    69. A(C   8,C   9,N  10)          132.57 -0.002503    0.18    132.75   
    70. A(C  11,N  10,H  27)          125.56 -0.003651    0.54    126.10   
    71. A(C   9,N  10,H  27)          126.30 -0.000971    0.13    126.42   
    72. A(C   9,N  10,C  11)          108.14  0.004622   -0.67    107.47   
    73. A(N  10,C  11,C  12)          126.00  0.011411   -1.53    124.47   
    74. A(C  12,C  11,N  15)          122.65 -0.002974    0.52    123.17   
    75. A(N  10,C  11,N  15)          111.36 -0.008437    1.01    112.36   
    76. A(C  13,C  12,C  14)           59.87  0.001390   -0.15     59.72   
    77. A(C  14,C  12,H  28)          116.81 -0.002317    0.52    117.34   
    78. A(C  13,C  12,H  28)          116.81 -0.002312    0.50    117.32   
    79. A(C  11,C  12,H  28)          113.25  0.003762   -0.84    112.40   
    80. A(C  11,C  12,C  13)          120.12 -0.001072    0.17    120.29   
    81. A(C  11,C  12,C  14)          120.12 -0.001376    0.29    120.41   
    82. A(C  12,C  13,C  14)           60.06 -0.000798    0.08     60.14   
    83. A(C  14,C  13,H  30)          118.46  0.000389    0.08    118.54   
    84. A(C  12,C  13,H  30)          119.27  0.001796   -0.62    118.66   
    85. A(C  14,C  13,H  29)          117.97 -0.000077    0.21    118.18   
    86. A(C  12,C  13,H  29)          117.40  0.000305   -0.21    117.19   
    87. A(H  29,C  13,H  30)          113.65 -0.001171    0.30    113.95   
    88. A(C  12,C  14,H  32)          117.41  0.000758   -0.30    117.11   
    89. A(C  13,C  14,H  31)          118.46  0.000818    0.00    118.46   
    90. A(C  12,C  14,H  31)          119.27  0.001441   -0.50    118.77   
    91. A(C  12,C  14,C  13)           60.07 -0.000591    0.07     60.13   
    92. A(H  31,C  14,H  32)          113.65 -0.001435    0.29    113.95   
    93. A(C  13,C  14,H  32)          117.97 -0.000304    0.28    118.25   
    94. A(C  11,N  15,C  16)          105.30  0.000114   -0.02    105.29   
    95. A(N  15,C  16,C  17)          129.44 -0.004739    0.47    129.90   
    96. A(C   9,C  16,C  17)          119.53 -0.001876    0.31    119.84   
    97. A(C   9,C  16,N  15)          111.03  0.006615   -0.77    110.26   
    98. A(C   6,C  17,C  16)          119.32  0.004390   -0.58    118.74   
    99. A(C  16,C  17,H  33)          117.70 -0.004590    0.67    118.36   
   100. A(C   6,C  17,H  33)          122.99  0.000201   -0.09    122.90   
   101. A(C   5,N  18,C  19)          106.38  0.003527   -0.47    105.91   
   102. A(N  18,C  19,C  20)          129.90 -0.003919    0.34    130.24   
   103. A(C   3,C  19,C  20)          119.28 -0.002089    0.33    119.61   
   104. A(C   3,C  19,N  18)          110.82  0.006008   -0.67    110.15   
   105. A(C   0,C  20,C  19)          118.61  0.003426   -0.44    118.17   
   106. A(C  19,C  20,H  34)          120.11 -0.002077    0.28    120.39   
   107. A(C   0,C  20,H  34)          121.27 -0.001349    0.16    121.44   
   108. D(H  22,C   1,C   0,C  20)    180.00 -0.000009    0.01    180.01   
   109. D(C   2,C   1,C   0,C  20)      0.01 -0.000004    0.01      0.01   
   110. D(H  22,C   1,C   0,H  21)     -0.00 -0.000006    0.01      0.01   
   111. D(C   2,C   1,C   0,H  21)   -179.99 -0.000001    0.00   -179.99   
   112. D(C   3,C   2,C   1,H  22)    180.00  0.000003   -0.00    180.00   
   113. D(H  23,C   2,C   1,H  22)      0.01  0.000003   -0.00      0.00   
   114. D(H  23,C   2,C   1,C   0)    180.00 -0.000003    0.00    180.00   
   115. D(C   3,C   2,C   1,C   0)     -0.01 -0.000003    0.01     -0.00   
   116. D(C  19,C   3,C   2,H  23)   -180.00  0.000002   -0.00   -180.00   
   117. D(C  19,C   3,C   2,C   1)      0.01  0.000002   -0.00      0.01   
   118. D(N   4,C   3,C   2,H  23)     -0.01  0.000010   -0.02     -0.02   
   119. D(N   4,C   3,C   2,C   1)   -180.00  0.000011   -0.02   -180.02   
   120. D(H  24,N   4,C   3,C   2)      0.02  0.000024   -0.03     -0.02   
   121. D(H  24,N   4,C   3,C  19)   -179.99  0.000033   -0.05   -180.04   
   122. D(C   5,N   4,C   3,C   2)   -179.99 -0.000001    0.00   -179.99   
   123. D(C   5,N   4,C   3,C  19)      0.00  0.000007   -0.01     -0.01   
   124. D(N  18,C   5,N   4,H  24)    179.99 -0.000050    0.07    180.06   
   125. D(N  18,C   5,N   4,C   3)     -0.01 -0.000025    0.04      0.03   
   126. D(C   6,C   5,N   4,H  24)      0.00 -0.000010    0.01      0.01   
   127. D(C   6,C   5,N   4,C   3)   -179.99  0.000015   -0.03   -180.02   
   128. D(C  17,C   6,C   5,N   4)     -0.12 -0.000100    0.19      0.07   
   129. D(C   7,C   6,C   5,N  18)     -0.09 -0.000072    0.16      0.06   
   130. D(C  17,C   6,C   5,N  18)    179.90 -0.000051    0.12    180.02   
   131. D(C   7,C   6,C   5,N   4)    179.89 -0.000120    0.23    180.12   
   132. D(H  25,C   7,C   6,C  17)   -179.99  0.000027   -0.04   -180.03   
   133. D(H  25,C   7,C   6,C   5)     -0.00  0.000048   -0.08     -0.08   
   134. D(C   8,C   7,C   6,C  17)      0.00  0.000062   -0.09     -0.09   
   135. D(C   8,C   7,C   6,C   5)    179.99  0.000083   -0.13    179.86   
   136. D(C   9,C   8,C   7,H  25)    180.00  0.000020   -0.03    179.97   
   137. D(C   9,C   8,C   7,C   6)      0.00 -0.000015    0.02      0.02   
   138. D(H  26,C   8,C   7,C   6)    180.00 -0.000037    0.05    180.05   
   139. D(H  26,C   8,C   7,H  25)     -0.01 -0.000002    0.00     -0.01   
   140. D(C  16,C   9,C   8,H  26)    180.00 -0.000016    0.02    180.02   
   141. D(C  16,C   9,C   8,C   7)     -0.01 -0.000039    0.06      0.05   
   142. D(N  10,C   9,C   8,H  26)      0.01 -0.000022    0.03      0.03   
   143. D(N  10,C   9,C   8,C   7)   -180.00 -0.000045    0.06   -179.94   
   144. D(H  27,N  10,C   9,C  16)   -180.00  0.000007   -0.02   -180.02   
   145. D(H  27,N  10,C   9,C   8)     -0.00  0.000013   -0.02     -0.03   
   146. D(C  11,N  10,C   9,C  16)      0.00 -0.000016    0.01      0.01   
   147. D(C  11,N  10,C   9,C   8)    179.99 -0.000010    0.01    180.00   
   148. D(N  15,C  11,N  10,H  27)   -180.00 -0.000027    0.05   -179.95   
   149. D(N  15,C  11,N  10,C   9)      0.00 -0.000004    0.02      0.02   
   150. D(C  12,C  11,N  10,H  27)      0.00 -0.000045    0.04      0.04   
   151. D(C  12,C  11,N  10,C   9)   -180.00 -0.000022    0.00   -179.99   
   152. D(H  28,C  12,C  11,N  10)   -179.99 -0.000309    0.41   -179.58   
   153. D(C  14,C  12,C  11,N  15)   -144.75  0.000265    0.27   -144.48   
   154. D(C  14,C  12,C  11,N  10)     35.25  0.000285    0.29     35.54   
   155. D(C  13,C  12,C  11,N  15)    144.78 -0.000437    0.27    145.05   
   156. D(C  13,C  12,C  11,N  10)    -35.22 -0.000417    0.28    -34.93   
   157. D(H  29,C  13,C  12,H  28)      1.20  0.000753    0.02      1.22   
   158. D(H  29,C  13,C  12,C  14)    108.12 -0.000511    0.38    108.50   
   159. D(H  29,C  13,C  12,C  11)   -142.37 -0.001190    0.60   -141.76   
   160. D(C  14,C  13,C  12,H  28)   -106.92  0.001264   -0.35   -107.28   
   161. D(H  30,C  13,C  12,C  11)      1.60 -0.000070   -0.16      1.44   
   162. D(C  14,C  13,C  12,C  11)    109.51 -0.000678    0.23    109.74   
   163. D(C  12,C  14,C  13,H  29)   -107.19 -0.000102    0.32   -106.88   
   164. D(H  32,C  14,C  12,C  11)    142.36  0.001090   -0.52    141.84   
   165. D(H  31,C  14,C  12,H  28)   -145.16 -0.001105    0.56   -144.60   
   166. D(H  31,C  14,C  12,C  13)    107.92  0.000151    0.24    108.16   
   167. D(H  31,C  14,C  12,C  11)     -1.60  0.000332    0.22     -1.39   
   168. D(C  13,C  14,C  12,H  28)    106.92 -0.001256    0.32    107.24   
   169. D(C  12,C  14,C  13,H  30)    109.25  0.001717   -0.75    108.50   
   170. D(C  13,C  14,C  12,C  11)   -109.52  0.000181   -0.02   -109.54   
   171. D(H  32,C  14,C  13,C  12)    107.20  0.000830   -0.46    106.73   
   172. D(H  31,C  14,C  13,H  30)      0.00  0.000534   -0.16     -0.16   
   173. D(H  31,C  14,C  13,H  29)    143.56 -0.001285    0.90    144.46   
   174. D(H  31,C  14,C  13,C  12)   -109.25 -0.001183    0.59   -108.66   
   175. D(C  16,N  15,C  11,C  12)    180.00  0.000040   -0.03    179.97   
   176. D(C  16,N  15,C  11,N  10)     -0.00  0.000022   -0.04     -0.05   
   177. D(C  17,C  16,N  15,C  11)   -180.00 -0.000051    0.08   -179.92   
   178. D(C   9,C  16,N  15,C  11)      0.00 -0.000032    0.05      0.06   
   179. D(C  17,C  16,C   9,N  10)    180.00  0.000047   -0.07    179.93   
   180. D(C  17,C  16,C   9,C   8)      0.00  0.000042   -0.06     -0.06   
   181. D(N  15,C  16,C   9,N  10)     -0.00  0.000030   -0.04     -0.04   
   182. D(N  15,C  16,C   9,C   8)   -180.00  0.000025   -0.04   -180.03   
   183. D(H  33,C  17,C  16,N  15)      0.01 -0.000004    0.01      0.01   
   184. D(H  33,C  17,C  16,C   9)   -179.99 -0.000025    0.04   -179.96   
   185. D(C   6,C  17,C  16,N  15)   -180.00  0.000029   -0.04   -180.04   
   186. D(C   6,C  17,C  16,C   9)      0.00  0.000009   -0.01     -0.01   
   187. D(H  33,C  17,C   6,C   7)    179.99 -0.000023    0.03    180.03   
   188. D(H  33,C  17,C   6,C   5)      0.00 -0.000045    0.07      0.07   
   189. D(C  16,C  17,C   6,C   7)     -0.01 -0.000058    0.09      0.08   
   190. D(C  16,C  17,C   6,C   5)   -180.00 -0.000080    0.13   -179.87   
   191. D(C  19,N  18,C   5,C   6)    179.99 -0.000009    0.02    180.01   
   192. D(C  19,N  18,C   5,N   4)      0.01  0.000031   -0.05     -0.04   
   193. D(C  20,C  19,N  18,C   5)   -180.00 -0.000015    0.02   -179.98   
   194. D(C   3,C  19,N  18,C   5)     -0.01 -0.000029    0.04      0.03   
   195. D(C  20,C  19,C   3,N   4)    180.00 -0.000000    0.00    180.00   
   196. D(C  20,C  19,C   3,C   2)     -0.01  0.000007   -0.01     -0.02   
   197. D(N  18,C  19,C   3,N   4)      0.01  0.000012   -0.02     -0.01   
   198. D(N  18,C  19,C   3,C   2)    180.00  0.000019   -0.03    179.97   
   199. D(H  34,C  20,C  19,N  18)     -0.01 -0.000011    0.02      0.01   
   200. D(H  34,C  20,C  19,C   3)   -180.00  0.000003   -0.00   -180.00   
   201. D(C   0,C  20,C  19,N  18)    180.00 -0.000028    0.04    180.04   
   202. D(C   0,C  20,C  19,C   3)      0.01 -0.000013    0.02      0.03   
   203. D(H  34,C  20,C   0,H  21)      0.00 -0.000007    0.01      0.01   
   204. D(H  34,C  20,C   0,C   1)   -180.00 -0.000005    0.01   -179.99   
   205. D(C  19,C  20,C   0,H  21)    179.99  0.000009   -0.01    179.98   
   206. D(C  19,C  20,C   0,C   1)     -0.01  0.000012   -0.02     -0.02   
    ----------------------------------------------------------------------------

Geometry step timings:
Preparation and reading OPT file:      0.000 s ( 0.000 %)
Internal coordinates            :      0.000 s ( 0.000 %)
B/P matrices and projection     :      0.003 s (20.000 %)
Hessian update/contruction      :      0.003 s (20.000 %)
Making the step                 :      0.005 s (33.333 %)
Converting the step to Cartesian:      0.001 s ( 6.667 %)
Storing new data                :      0.000 s ( 0.000 %)
Checking convergence            :      0.000 s ( 0.000 %)
Final printing                  :      0.003 s (20.000 %)
Total time                      :      0.015 s

Time for energy+gradient        :    301.981 s
Time for complete geometry iter :    302.121 s

         *************************************************************
         *                GEOMETRY OPTIMIZATION CYCLE   2            *
         *************************************************************
---------------------------------
CARTESIAN COORDINATES (ANGSTROEM)
---------------------------------
  C     -6.595794   -0.139791   -0.623849
  C     -6.471576    0.675332    0.520088
  C     -5.221481    1.000458    1.056598
  C     -4.103572    0.475562    0.400110
  N     -2.750528    0.580786    0.636686
  C     -2.092571   -0.147189   -0.333545
  C     -0.634010   -0.268505   -0.406142
  C     -0.070522   -1.042594   -1.451288
  C      1.306980   -1.209817   -1.598286
  C      2.118156   -0.571281   -0.655265
  N      3.485841   -0.509575   -0.484986
  C      3.729231    0.269785    0.620347
  C      5.088217    0.586803    1.147095
  C      6.194367   -0.437672    1.066145
  C      6.246668    0.790369    0.200130
  N      2.616755    0.715247    1.176048
  C      1.592288    0.206287    0.399752
  C      0.204497    0.360725    0.528063
  N     -2.946898   -0.711889   -1.178105
  C     -4.202919   -0.343460   -0.747748
  C     -5.470005   -0.657413   -1.269354
  H     -7.589310   -0.372594   -1.014767
  H     -7.373365    1.063534    1.000707
  H     -5.128971    1.631670    1.942281
  H     -2.319647    1.103245    1.392398
  H     -0.737775   -1.524651   -2.167654
  H      1.718852   -1.809580   -2.411044
  H      4.187018   -0.957417   -1.067754
  H      5.052645    1.215867    2.037718
  H      6.880589   -0.500368    1.915289
  H      5.983201   -1.401507    0.593861
  H      6.074289    0.678274   -0.874337
  H      6.966780    1.572982    0.454776
  H     -0.175851    0.967632    1.352206
  H     -5.561678   -1.289254   -2.155973

----------------------------
CARTESIAN COORDINATES (A.U.)
----------------------------
  NO LB      ZA    FRAG     MASS         X           Y           Z
   0 C     6.0000    0    12.011  -12.464245   -0.264167   -1.178903
   1 C     6.0000    0    12.011  -12.229507    1.276193    0.982824
   2 C     6.0000    0    12.011   -9.867170    1.890592    1.996680
   3 C     6.0000    0    12.011   -7.754626    0.898682    0.756097
   4 N     7.0000    0    14.007   -5.197744    1.097526    1.203163
   5 C     6.0000    0    12.011   -3.954386   -0.278147   -0.630309
   6 C     6.0000    0    12.011   -1.198105   -0.507400   -0.767498
   7 C     6.0000    0    12.011   -0.133266   -1.970217   -2.742538
   8 C     6.0000    0    12.011    2.469834   -2.286222   -3.020323
   9 C     6.0000    0    12.011    4.002734   -1.079565   -1.238271
  10 N     7.0000    0    14.007    6.587286   -0.962958   -0.916491
  11 C     6.0000    0    12.011    7.047225    0.509819    1.172286
  12 C     6.0000    0    12.011    9.615336    1.108896    2.167695
  13 C     6.0000    0    12.011   11.705657   -0.827079    2.014721
  14 C     6.0000    0    12.011   11.804491    1.493582    0.378191
  15 N     7.0000    0    14.007    4.944950    1.351621    2.222408
  16 C     6.0000    0    12.011    3.008989    0.389827    0.755422
  17 C     6.0000    0    12.011    0.386444    0.681672    0.997894
  18 N     7.0000    0    14.007   -5.568830   -1.345276   -2.226295
  19 C     6.0000    0    12.011   -7.942366   -0.649045   -1.413039
  20 C     6.0000    0    12.011  -10.336812   -1.242331   -2.398731
  21 H     1.0000    0     1.008  -14.341718   -0.704101   -1.917631
  22 H     1.0000    0     1.008  -13.933641    2.009788    1.891063
  23 H     1.0000    0     1.008   -9.692351    3.083409    3.670379
  24 H     1.0000    0     1.008   -4.383497    2.084831    2.631251
  25 H     1.0000    0     1.008   -1.394193   -2.881172   -4.096272
  26 H     1.0000    0     1.008    3.248159   -3.419610   -4.556214
  27 H     1.0000    0     1.008    7.912317   -1.809257   -2.017763
  28 H     1.0000    0     1.008    9.548116    2.297656    3.850729
  29 H     1.0000    0     1.008   13.002429   -0.945559    3.619372
  30 H     1.0000    0     1.008   11.306612   -2.648464    1.122235
  31 H     1.0000    0     1.008   11.478743    1.281752   -1.652258
  32 H     1.0000    0     1.008   13.165306    2.972505    0.859402
  33 H     1.0000    0     1.008   -0.332310    1.828560    2.555299
  34 H     1.0000    0     1.008  -10.510049   -2.436337   -4.074198

--------------------------------
INTERNAL COORDINATES (ANGSTROEM)
--------------------------------
 C      0   0   0     0.000000000000     0.00000000     0.00000000
 C      1   0   0     1.410123414080     0.00000000     0.00000000
 C      2   1   0     1.398672983430   121.61967078     0.00000000
 C      3   2   1     1.398647654593   116.55725620     0.00000000
 N      4   3   2     1.377595057460   132.51341187   179.98450840
 C      5   4   3     1.379929008058   107.89461064   180.00893303
 C      6   5   4     1.465397176996   123.57903043   179.98234912
 C      7   6   5     1.417414321255   118.51792676   180.11966680
 C      8   7   6     1.395378972998   122.38322496   179.86438818
 C      9   8   7     1.398221371010   116.54733751     0.00000000
 N     10   9   8     1.379625419629   132.74956895   180.06299151
 C     11  10   9     1.374191595290   107.47106095   180.00440258
 C     12  11  10     1.491578547408   124.46930075   180.00545773
 C     13  12  11     1.509857081677   120.28803110   325.06709401
 C     14  13  12     1.503595903338    60.14465995   109.74052788
 N     12  11  10     1.320925283215   112.36329159     0.00000000
 C     16  12  11     1.382463737979   105.29079823   359.95389675
 C     17  16  12     1.402240449018   129.90213923   180.08117895
 N      6   5   4     1.327419221988   111.40116132     0.03110658
 C     19   6   5     1.377873502806   105.91508162   359.96213674
 C      1   2   3     1.397143485307   121.19700946     0.00000000
 H      1   2   3     1.092743668316   119.56770980   180.00632397
 H      2   1   3     1.093123380880   119.29398055   180.00134108
 H      3   2   1     1.091522458101   121.42772691   180.00331776
 H      5   4   3     1.014752479516   125.75136537     0.00000000
 H      8   7   6     1.091231519451   118.83088917   359.92146063
 H      9   8   7     1.090839027285   121.13907344   180.05105874
 H     11  10   9     1.015789772507   126.42533700   359.97319794
 H     13  12  11     1.090961710932   112.40450681   180.41765744
 H     14  13  12     1.093562175317   117.19346963   218.23701987
 H     14  13  12     1.093901627519   118.65731764     1.44257156
 H     15  14  13     1.093965349903   118.45881535   251.33932393
 H     15  14  13     1.093566822600   118.24779008   106.73304865
 H     18  17  16     1.091885173048   118.36164799     0.00000000
 H     21   1   2     1.092574605138   121.43761435   180.00749319

---------------------------
INTERNAL COORDINATES (A.U.)
---------------------------
 C      0   0   0     0.000000000000     0.00000000     0.00000000
 C      1   0   0     2.664747067641     0.00000000     0.00000000
 C      2   1   0     2.643108889598   121.61967078     0.00000000
 C      3   2   1     2.643061025033   116.55725620     0.00000000
 N      4   3   2     2.603277382044   132.51341187   179.98450840
 C      5   4   3     2.607687909484   107.89461064   180.00893303
 C      6   5   4     2.769199341945   123.57903043   179.98234912
 C      7   6   5     2.678524885469   118.51792676   180.11966680
 C      8   7   6     2.636884111999   122.38322496   179.86438818
 C      9   8   7     2.642255465805   116.54733751     0.00000000
 N     10   9   8     2.607114210496   132.74956895   180.06299151
 C     11  10   9     2.596845770635   107.47106095   180.00440258
 C     12  11  10     2.818674961833   124.46930075   180.00545773
 C     13  12  11     2.853216385731   120.28803110   325.06709401
 C     14  13  12     2.841384473395    60.14465995   109.74052788
 N     12  11  10     2.496187028649   112.36329159     0.00000000
 C     16  12  11     2.612477854857   105.29079823   359.95389675
 C     17  16  12     2.649850422551   129.90213923   180.08117895
 N      6   5   4     2.508458794460   111.40116132     0.03110658
 C     19   6   5     2.603803567491   105.91508162   359.96213674
 C      1   2   3     2.640218557023   121.19700946     0.00000000
 H      1   2   3     2.064986267695   119.56770980   180.00632397
 H      2   1   3     2.065703820450   119.29398055   180.00134108
 H      3   2   1     2.062678514836   121.42772691   180.00331776
 H      5   4   3     1.917604280003   125.75136537     0.00000000
 H      8   7   6     2.062128720464   118.83088917   359.92146063
 H      9   8   7     2.061387017761   121.13907344   180.05105874
 H     11  10   9     1.919564479676   126.42533700   359.97319794
 H     13  12  11     2.061618856256   112.40450681   180.41765744
 H     14  13  12     2.066533021765   117.19346963   218.23701987
 H     14  13  12     2.067174493462   118.65731764     1.44257156
 H     15  14  13     2.067294911315   118.45881535   251.33932393
 H     15  14  13     2.066541803856   118.24779008   106.73304865
 H     18  17  16     2.063363946750   118.36164799     0.00000000
 H     21   1   2     2.064666784588   121.43761435   180.00749319

------------------------------------------------------------------------------
                   ___                                                        
                  /   \      - P O W E R E D   B Y -                         
                 /     \                                                     
                 |  |  |   _    _      __       _____    __    __             
                 |  |  |  | |  | |    /  \     |  _  \  |  |  /  |          
                  \  \/   | |  | |   /    \    | | | |  |  | /  /          
                 / \  \   | |__| |  /  /\  \   | |_| |  |  |/  /          
                |  |  |   |  __  | /  /__\  \  |    /   |      \           
                |  |  |   | |  | | |   __   |  |    \   |  |\   \          
                \     /   | |  | | |  |  |  |  | |\  \  |  | \   \       
                 \___/    |_|  |_| |__|  |__|  |_| \__\ |__|  \__/        
                                                                              
                      - O R C A' S   B I G   F R I E N D -                    
                                      &                                       
                       - I N T E G R A L  F E E D E R -                       
                                                                              
 v1 FN, 2020, v2 2021, v3 2022-2024                                           
------------------------------------------------------------------------------


----------------------
SHARK INTEGRAL PACKAGE
----------------------

Number of atoms                             ...     35
Number of basis functions                   ...    364
Number of shells                            ...    168
Maximum angular momentum                    ...      2
Integral batch strategy                     ... SHARK/LIBINT Hybrid
RI-J (if used) integral strategy            ... SPLIT-RIJ (Revised 2003 algorithm where possible)
Printlevel                                  ...      1
Contraction scheme used                     ... SEGMENTED contraction
Prescreening option                         ... SCHWARTZ
   Thresh                                   ... 2.500e-11
   Tcut                                     ... 2.500e-12
   Tpresel                                  ... 2.500e-12 
Coulomb Range Separation                    ... NOT USED
Exchange Range Separation                   ... NOT USED
Multipole approximations                    ... NOT USED
Finite Nucleus Model                        ... NOT USED
CABS basis                                  ... NOT available
Auxiliary Coulomb fitting basis             ... AVAILABLE
   # of basis functions in Aux-J            ...   1183
   # of shells in Aux-J                     ...    385
   Maximum angular momentum in Aux-J        ...      4
Auxiliary J/K fitting basis                 ... NOT available
Auxiliary Correlation fitting basis         ... NOT available
Auxiliary 'external' fitting basis          ... NOT available

Checking pre-screening integrals            ... done (  0.0 sec) Dimension = 168
   => SHARK Basis and OBASIS are compatible. Storing Pre-screening
Shell pair information
Shell pair cut-off parameter TPreSel        ...   2.5e-12
Total number of shell pairs                 ...     14196
Shell pairs after pre-screening             ...      9245
Total number of primitive shell pairs       ...     52318
Primitive shell pairs kept                  ...     22450
          la=0 lb=0:   2753 shell pairs
          la=1 lb=0:   3402 shell pairs
          la=1 lb=1:   1093 shell pairs
          la=2 lb=0:   1139 shell pairs
          la=2 lb=1:    727 shell pairs
          la=2 lb=2:    131 shell pairs

Checking whether 4 symmetric matrices of dimension 364 fit in memory
:Max Core in MB      =   2000.00
 MB in use           =     13.67
 MB left             =   1986.33
 MB needed           =      2.03
 Data fit in memory  = YES
Calculating RI/J V-Matrix + Cholesky decomp.... done (  0.1 sec)
Calculating Nuclear repulsion               ... done (  0.0 sec) ENN=   1447.402922708879 Eh

Diagonalization of the overlap matrix:
Smallest eigenvalue                        ... 2.357e-04
Time for diagonalization                   ...    0.011 sec
Threshold for overlap eigenvalues          ... 1.000e-07
Number of eigenvalues below threshold      ... 0
Time for construction of square roots      ...    0.007 sec
Total time needed                          ...    0.020 sec

-------------------
DFT GRID GENERATION
-------------------

General Integration Accuracy     IntAcc      ... 4.388
Radial Grid Type                 RadialGrid  ... OptM3 with GC (2021)
Angular Grid (max. ang.)         AngularGrid ... 4 (Lebedev-302)
Angular grid pruning method      GridPruning ... 4 (adaptive)
Weight generation scheme         WeightScheme... mBecke (2022)
Basis function cutoff            BFCut       ... 1.0000e-11
Integration weight cutoff        WCut        ... 1.0000e-14
Partially contracted basis set               ... off
Rotationally invariant grid construction     ... off
Angular grids for H and He will be reduced by one unit

Total number of grid points                  ...   170601
Total number of batches                      ...     2685
Average number of points per batch           ...       63
Average number of grid points per atom       ...     4874

--------------------
COSX GRID GENERATION
--------------------

GRIDX 1
-------
General Integration Accuracy     IntAcc      ... 3.816
Radial Grid Type                 RadialGrid  ... OptM3 with GC (2021)
Angular Grid (max. ang.)         AngularGrid ... 1 (Lebedev-50)
Angular grid pruning method      GridPruning ... 4 (adaptive)
Weight generation scheme         WeightScheme... mBecke (2022)
Basis function cutoff            BFCut       ... 1.0000e-11
Integration weight cutoff        WCut        ... 1.0000e-14
Partially contracted basis set               ... on
Rotationally invariant grid construction     ... off
Angular grids for H and He will be reduced by one unit

Total number of grid points                  ...    21681
Total number of batches                      ...      190
Average number of points per batch           ...      114
Average number of grid points per atom       ...      619
UseSFitting                                  ... on

GRIDX 2
-------
General Integration Accuracy     IntAcc      ... 4.020
Radial Grid Type                 RadialGrid  ... OptM3 with GC (2021)
Angular Grid (max. ang.)         AngularGrid ... 2 (Lebedev-110)
Angular grid pruning method      GridPruning ... 4 (adaptive)
Weight generation scheme         WeightScheme... mBecke (2022)
Basis function cutoff            BFCut       ... 1.0000e-11
Integration weight cutoff        WCut        ... 1.0000e-14
Partially contracted basis set               ... on
Rotationally invariant grid construction     ... off
Angular grids for H and He will be reduced by one unit

Total number of grid points                  ...    47663
Total number of batches                      ...      393
Average number of points per batch           ...      121
Average number of grid points per atom       ...     1362
UseSFitting                                  ... on

GRIDX 3
-------
General Integration Accuracy     IntAcc      ... 4.338
Radial Grid Type                 RadialGrid  ... OptM3 with GC (2021)
Angular Grid (max. ang.)         AngularGrid ... 3 (Lebedev-194)
Angular grid pruning method      GridPruning ... 4 (adaptive)
Weight generation scheme         WeightScheme... mBecke (2022)
Basis function cutoff            BFCut       ... 1.0000e-11
Integration weight cutoff        WCut        ... 1.0000e-14
Partially contracted basis set               ... on
Rotationally invariant grid construction     ... off
Angular grids for H and He will be reduced by one unit

Total number of grid points                  ...   104541
Total number of batches                      ...      834
Average number of points per batch           ...      125
Average number of grid points per atom       ...     2987
UseSFitting                                  ... on
Grids setup in   4.0 sec
Initializing property integral containers    ... done (  0.0 sec)

SHARK setup successfully completed in   4.3 seconds

Maximum memory used throughout the entire STARTUP-calculation: 70.5 MB
Occupation numbers will be reassigned to an Aufbau configuration
             **** ENERGY FILE WAS UPDATED (C:\Users\jabreumiranda\Radioprotection_Pipeline_Project\06_Quantum_DFT_ORCA\CHEMBL4952776_neutral_opt.en.tmp) ****
Finished Guess after   0.2 sec
Maximum memory used throughout the entire GUESS-calculation: 24.9 MB
--------------------
CPCM SOLVATION MODEL
--------------------
CPCM parameters:
  Epsilon                                         ...      80.1510
  Refrac                                          ...       1.3328
  Rsolv                                           ...       1.3000
  Surface type                                    ... GAUSSIAN VDW
  Discretization scheme                           ... Constant charge density
    Threshold for H atoms                         ...       5.0000 (charges/Ang^2)
    Threshold for non-H atoms                     ...       5.0000 (charges/Ang^2)
  Epsilon function type                           ...         CPCM
Solvent:                                          ... WATER
Radii:
  Scheme                                          ... Element-dependent radii
  Radius for C  used is    3.8550 Bohr (=   2.0400 Ang.)
  Radius for N  used is    3.5149 Bohr (=   1.8600 Ang.)
  Radius for H  used is    2.4944 Bohr (=   1.3200 Ang.)
Calculating surface                               ...        done! (  0.0s)
Cavity surface points                             ...         3189
Cavity Volume                                     ...    2195.0709
Cavity Surface-area                               ...    1133.0037
Calculating surface distance matrix               ...        done! (  0.1s)
Performing Cholesky decomposition & store         ...        done! (  0.4s)
Overall time for CPCM initialization              ...                 0.5s

----------------------------------------D-I-I-S--------------------------------------------
Iteration    Energy (Eh)           Delta-E    RMSDP     MaxDP     DIISErr   Damp  Time(sec)
-------------------------------------------------------------------------------------------
               ***  Starting incremental Fock matrix formation  ***
    1    -874.1270098554928154     0.00e+00  2.81e-04  9.70e-03  8.53e-03  0.700  20.3
    2    -874.1276494807812014    -6.40e-04  2.28e-04  8.25e-03  5.92e-03  0.700   9.3
                               ***Turning on AO-DIIS***
    3    -874.1281048743840074    -4.55e-04  1.66e-04  6.12e-03  4.19e-03  0.700   8.9
                              *** Initializing SOSCF ***
---------------------------------------S-O-S-C-F--------------------------------------
Iteration    Energy (Eh)           Delta-E    RMSDP     MaxDP     MaxGrad    Time(sec)
--------------------------------------------------------------------------------------
    4    -874.1284253129911122    -3.20e-04  3.99e-04  1.49e-02  3.05e-03     8.9
               *** Restarting incremental Fock matrix formation ***
    5    -874.1292114051962017    -7.86e-04  3.42e-05  1.07e-03  2.19e-04    20.1
    6    -874.1292090373576684     2.37e-06  1.73e-05  6.59e-04  2.62e-04    13.5
    7    -874.1292163173293375    -7.28e-06  4.27e-06  1.76e-04  2.73e-05    12.2
    8    -874.1292162643280790     5.30e-08  2.48e-06  1.10e-04  4.16e-05    10.3
    9    -874.1292163940811406    -1.30e-07  5.74e-07  2.58e-05  3.90e-06     9.5
   10    -874.1292163669577349     2.71e-08  3.23e-07  1.56e-05  4.78e-06     7.9
   11    -874.1292163846997028    -1.77e-08  1.49e-07  4.61e-06  7.61e-07     7.1
                  *** Gradient check signals convergence ***

               *****************************************************
               *                     SUCCESS                       *
               *           SCF CONVERGED AFTER  11 CYCLES          *
               *****************************************************

Recomputing exchange energy using gridx3       ... done (   30.787 sec)
Old exchange energy                            :    -23.885592623 Eh
New exchange energy                            :    -23.885597570 Eh
Exchange energy change after final integration :     -0.000004947 Eh
Total energy after final integration           :   -874.129221345 Eh
             **** ENERGY FILE WAS UPDATED (C:\Users\jabreumiranda\Radioprotection_Pipeline_Project\06_Quantum_DFT_ORCA\CHEMBL4952776_neutral_opt.en.tmp) ****

----------------
TOTAL SCF ENERGY
----------------

Total Energy       :       -874.12922134461019 Eh          -23786.26538 eV

Components:
Nuclear Repulsion  :       1447.40292270887903 Eh           39385.83586 eV
Electronic Energy  :      -2321.49847819830165 Eh          -63171.18515 eV
One Electron Energy:      -4057.13015868695993 Eh         -110400.12425 eV
Two Electron Energy:       1735.63168048865828 Eh           47228.93910 eV
CPCM Dielectric    :         -0.03366090845307 Eh              -0.91596 eV

Virial components:
Potential Energy   :      -1739.18881222557889 Eh          -47325.73357 eV
Kinetic Energy     :        865.05959088096870 Eh           23539.46819 eV
Virial Ratio       :          2.01048439964050

DFT components:
N(Alpha)           :       72.000035856668 electrons
N(Beta)            :       72.000035856668 electrons
N(Total)           :      144.000071713336 electrons
E(X)               :      -94.898283538403 Eh       
E(C)               :       -5.772888933833 Eh       
E(XC)              :     -100.671172472236 Eh       

CPCM Solvation Model Properties:
Surface-charge          :         -0.02851415960126
Corrected charge        :          0.00000000000000
Outlying charge corr.   :          0.00004243119985 Eh               0.00115 eV
Free-energy (cav+disp)  :  This term is not implemented in the current solvation scheme

---------------
SCF CONVERGENCE
---------------

  Last Energy change         ...    1.7742e-08  Tolerance :   1.0000e-08
  Last MAX-Density change    ...    4.6105e-06  Tolerance :   1.0000e-07
  Last RMS-Density change    ...    1.4928e-07  Tolerance :   5.0000e-09
  Last DIIS Error            ...    3.0490e-03  Tolerance :   5.0000e-07
  Last Orbital Gradient      ...    7.6064e-07  Tolerance :   1.0000e-05
  Last Orbital Rotation      ...    2.0165e-06  Tolerance :   1.0000e-05


Total SCF time: 0 days 0 hours 2 min 45 sec 
Finished LeanSCF after 165.9 sec

Maximum memory used throughout the entire LEANSCF-calculation: 98.4 MB

------------------------------------------------------------------------------
                         ORCA PROPERTY INTEGRAL CALCULATIONS
------------------------------------------------------------------------------

GBWName                                   ... C:\Users\jabreumiranda\Radioprotection_Pipeline_Project\06_Quantum_DFT_ORCA\CHEMBL4952776_neutral_opt.gbw
Number of atoms                           ...     35
Number of basis functions                 ...    364
Max core memory                           ...   2000 MB

Dipole integrals                          ... YES
Quadrupole integrals                      ...  NO
Linear momentum integrals                 ...  NO
Angular momentum integrals                ...  NO
Higher moments length integrals           ...  NO
Higher moments velocity integrals         ...  NO
Kinetic energy integrals                  ...  NO
GIAO right hand sides                     ...  NO
GIAO dipole derivative integrals          ...  NO
SOC integrals                             ...  NO
EPR diamagnetic integrals (GIAO)          ...  NO
EPR gauge integrals                       ...  NO
Field gradient integrals                  ...  NO (   0 nuclei)
Spin-dipole/Fermi contact integrals       ...  NO (   0 nuclei)
Contact density integrals                 ...  NO (   0 nuclei)
Nucleus-orbit integrals                   ...  NO (   0 nuclei)
Geometric perturbations                   ...  NO (  35 nuclei)

Choice of electric origin   ... Center of mass
Position of electric origin ... ( -0.5990, -0.0276, -0.0735) 
Choice of magnetic origin   ... GIAO
Position of magnetic origin ... (  0.0000,  0.0000,  0.0000) 

Calculating integrals                     ... Electric Dipole (Length)     done (  0.0 sec)

Property integrals calculated in   0.0 sec

Maximum memory used throughout the entire PROPINT-calculation: 24.0 MB


-------------------------------------------------------------------------------
                          DFT DISPERSION CORRECTION                            
                                                                               
                              DFTD3 V3.1  Rev 1                                
                          USING Becke-Johnson damping                          
-------------------------------------------------------------------------------
-------------------------   ----------------
Dispersion correction           -0.074428006
-------------------------   ----------------


-------------------------   --------------------
FINAL SINGLE POINT ENERGY      -874.203649350476
-------------------------   --------------------

------------------------------------------------------------------------------
                         ORCA SCF GRADIENT CALCULATION
------------------------------------------------------------------------------

Nuc. rep. gradient        (SHARK) ... done (  0.0 sec)
HCore & Overlap gradient  (SHARK) ... done (  0.8 sec)
Split-RIJ-J gradient      (SHARK) ... done (  5.0 sec)
COSX-gradient                     ... done ( 76.3 sec)
XC gradient                       ... done ( 12.8 sec)
CPCM gradient                     ... done (  4.6 sec)
Dispersion correction             ... done (  0.1 sec)

-------------------
DISPERSION GRADIENT
-------------------

   1   C   :   -0.000084592   -0.000084812   -0.000123764
   2   C   :   -0.000047373    0.000086933    0.000118029
   3   C   :   -0.000291730    0.000183012    0.000235598
   4   C   :    0.001320979   -0.000807325   -0.001036941
   5   N   :   -0.000513938   -0.000243975   -0.000373893
   6   C   :   -0.004163568    0.000223715    0.000034643
   7   C   :    0.000453913   -0.000030198   -0.000011311
   8   C   :    0.000284435   -0.000056967   -0.000060802
   9   C   :   -0.000020735   -0.000227729   -0.000318710
  10   C   :    0.000862501    0.000953604    0.001387403
  11   N   :   -0.000726050    0.000178149    0.000206545
  12   C   :   -0.004003481   -0.000699347   -0.001222962
  13   C   :    0.000322063    0.000165983    0.000252731
  14   C   :    0.000398692   -0.000082494    0.000180310
  15   C   :    0.000410834    0.000176510   -0.000002558
  16   N   :   -0.000160348   -0.000051206   -0.000080055
  17   C   :    0.003239635   -0.000309749   -0.000233040
  18   C   :    0.000078837    0.000015431    0.000028274
  19   N   :   -0.000309526    0.000128381    0.000158923
  20   C   :    0.002695157    0.000670540    0.001114174
  21   C   :   -0.000238056   -0.000128186   -0.000194339
  22   H   :   -0.000252418   -0.000058724   -0.000098701
  23   H   :   -0.000228936    0.000097390    0.000120381
  24   H   :   -0.000090768    0.000186575    0.000253916
  25   H   :    0.000038104    0.000191950    0.000269912
  26   H   :    0.000010454   -0.000190515   -0.000264924
  27   H   :    0.000027082   -0.000195454   -0.000271312
  28   H   :    0.000104732   -0.000192984   -0.000262129
  29   H   :    0.000072742    0.000156878    0.000226339
  30   H   :    0.000188097   -0.000108167    0.000140655
  31   H   :    0.000250146   -0.000246777    0.000061639
  32   H   :    0.000266332    0.000127353   -0.000202370
  33   H   :    0.000198747    0.000157932   -0.000047273
  34   H   :    0.000024462    0.000181279    0.000255983
  35   H   :   -0.000116426   -0.000167007   -0.000240369

Difference to translation invariance:
           :   -0.0000000000    0.0000000000    0.0000000000

Difference to rotation invariance:
           :    0.0000000000   -0.0000000000   -0.0000000000

Norm of the Dispersion gradient    ...    0.0081271771
RMS gradient                       ...    0.0007931313
MAX gradient                       ...    0.0041635682

------------------
CARTESIAN GRADIENT
------------------

   1   C   :   -0.002637934    0.002181539    0.002874941
   2   C   :   -0.000524868   -0.002100153   -0.002933701
   3   C   :    0.002876530    0.001169703    0.001833811
   4   C   :   -0.001778192   -0.004533910   -0.006437035
   5   N   :   -0.004555845   -0.000459436   -0.001008205
   6   C   :    0.004745469    0.000143338    0.000611567
   7   C   :   -0.001136163   -0.001379567   -0.002017512
   8   C   :   -0.003943181    0.003915601    0.005329267
   9   C   :    0.005384758   -0.002143574   -0.002620056
  10   C   :   -0.005908316    0.004323781    0.005714839
  11   N   :   -0.003229728    0.000872806    0.000999517
  12   C   :   -0.008738017   -0.006747807   -0.009941462
  13   C   :    0.013269672    0.003952241    0.005984848
  14   C   :   -0.005817132    0.000223215    0.001157923
  15   C   :   -0.005411653    0.001528788    0.000555281
  16   N   :   -0.001848987    0.000067720    0.000137439
  17   C   :    0.009629060   -0.002585310   -0.003144717
  18   C   :   -0.002321116   -0.000631726   -0.001099767
  19   N   :   -0.004623300    0.000116267   -0.000256939
  20   C   :    0.004713599    0.003950616    0.005857766
  21   C   :    0.001844800   -0.000301844   -0.000300492
  22   H   :    0.000449113   -0.000319377   -0.000405800
  23   H   :    0.000101579    0.000020436    0.000029292
  24   H   :   -0.000541482   -0.000110408   -0.000197271
  25   H   :    0.000712806    0.000205764    0.000548099
  26   H   :    0.001427306   -0.000870058   -0.001174451
  27   H   :   -0.000615078    0.000115030    0.000111318
  28   H   :    0.001539933    0.000142513    0.000267930
  29   H   :    0.001576412   -0.000344223   -0.000246535
  30   H   :    0.000467775   -0.000351164   -0.000539691
  31   H   :    0.001566873   -0.000319395    0.000429867
  32   H   :    0.001668003    0.000167055   -0.000069635
  33   H   :    0.000338640   -0.000269793   -0.000519416
  34   H   :    0.001302865    0.000338343    0.000417189
  35   H   :    0.000015801    0.000032988    0.000051793

Difference to translation invariance:
           :    0.0000000000    0.0000000000    0.0000000000

Difference to rotation invariance:
           :   -0.0001533155    0.0004268250    0.0009328529

Norm of the Cartesian gradient     ...    0.0333783908
RMS gradient                       ...    0.0032573974
MAX gradient                       ...    0.0132696724

-------
TIMINGS
-------

Total SCF gradient time     ....       99.624 sec

Densities                   ....       0.004 sec  (  0.0%)
One electron gradient       ....       0.845 sec  (  0.8%)
RI-J Coulomb gradient       ....       5.022 sec  (  5.0%)
COSX gradient               ....      76.334 sec  ( 76.6%)
XC gradient                 ....      12.776 sec  ( 12.8%)
CPCM gradient               ....       4.576 sec  (  4.6%)
   A-Matrix (El+Nuc)        ....       0.510 sec  (  0.5%)
   Potential                ....       4.066 sec  (  4.1%)

Maximum memory used throughout the entire SCFGRAD-calculation: 53.0 MB
------------------------------------------------------------------------------
                         ORCA GEOMETRY RELAXATION STEP
------------------------------------------------------------------------------

Reading the OPT-File                    .... done
Getting information on internals        .... done
Copying old internal coords+grads       .... done
Making the new internal coordinates     .... (2022 redundants) done
Validating the new internal coordinates .... (2022 redundants) done
Calculating the B-matrix                .... done
Calculating the G,G- and P matrices     .... done
Transforming gradient to internals      .... done
Projecting the internal gradient        .... done
Number of atoms                         ....  35
Number of internal coordinates          .... 206
Current Energy                          ....  -874.203649350 Eh
Current gradient norm                   ....     0.033378391 Eh/bohr
Maximum allowed component of the step   ....  0.300
Current trust radius                    ....  0.300
Updating the Hessian (BFGS)             .... done
Forming the augmented Hessian           .... done
Diagonalizing the augmented Hessian     .... done
Last element of RFO vector              ....  0.997105425
Lowest eigenvalues of augmented Hessian:
 -0.001293585  0.010002275  0.014821880  0.021016868  0.021962112
Length of the computed step             ....  0.076252104
The final length of the internal step   ....  0.076252104
Converting the step to Cartesian space:
 Initial RMS(Int)=    0.0053127358
Transforming coordinates:
 Iter   0:  RMS(Cart)=    0.0145412211 RMS(Int)=    0.6191080040
done
Storing new coordinates                 .... done
The predicted energy change is          ....    -0.000650553
Previously predicted energy change      ....    -0.006776746
Actually observed energy change         ....    -0.008087030
Ratio of predicted to observed change   ....     1.193350047
New trust radius                        ....     0.450000000

                                .--------------------.
          ----------------------|Geometry convergence|-------------------------
          Item                value                   Tolerance       Converged
          ---------------------------------------------------------------------
          Energy change      -0.0080870296            0.0000050000      NO
          RMS gradient        0.0013785797            0.0001000000      NO
          MAX gradient        0.0103354903            0.0003000000      NO
          RMS step            0.0053127358            0.0020000000      NO
          MAX step            0.0415615631            0.0040000000      NO
          -------------------------------------------------------------------------
          ........................................................
          Max(Bonds)      0.0220      Max(Angles)    0.59
          Max(Dihed)        0.88      Max(Improp)    0.00
          ---------------------------------------------------------------------

The optimization has not yet converged - more geometry cycles are needed


    ---------------------------------------------------------------------------
                         Redundant Internal Coordinates
                            (Angstroem and degrees)

        Definition                    Value    dE/dq     Step     New-Value
    ----------------------------------------------------------------------------
     1. B(C   1,C   0)                1.4101 -0.002789  0.0033    1.4134   
     2. B(C   2,C   1)                1.3987  0.001227 -0.0015    1.3972   
     3. B(C   3,C   2)                1.3986 -0.000321  0.0005    1.3992   
     4. B(N   4,C   3)                1.3776 -0.001493  0.0020    1.3796   
     5. B(C   5,N   4)                1.3799  0.000589 -0.0010    1.3790   
     6. B(C   6,C   5)                1.4654 -0.000781  0.0010    1.4664   
     7. B(C   7,C   6)                1.4174 -0.002572  0.0031    1.4205   
     8. B(C   8,C   7)                1.3954  0.002489 -0.0031    1.3923   
     9. B(C   9,C   8)                1.3982 -0.000967  0.0013    1.3995   
    10. B(N  10,C   9)                1.3796 -0.001023  0.0014    1.3810   
    11. B(C  11,N  10)                1.3742 -0.002787  0.0031    1.3773   
    12. B(C  12,C  11)                1.4916  0.010335 -0.0220    1.4696   
    13. B(C  13,C  12)                1.5099 -0.003071  0.0053    1.5152   
    14. B(C  14,C  13)                1.5036  0.001240 -0.0021    1.5015   
    15. B(C  14,C  12)                1.5100 -0.003084  0.0052    1.5152   
    16. B(N  15,C  11)                1.3209 -0.001143  0.0011    1.3221   
    17. B(C  16,N  15)                1.3825 -0.003276  0.0041    1.3866   
    18. B(C  16,C   9)                1.4122 -0.006268  0.0078    1.4199   
    19. B(C  17,C  16)                1.4022  0.001691 -0.0019    1.4003   
    20. B(C  17,C   6)                1.4042  0.000104 -0.0002    1.4040   
    21. B(N  18,C   5)                1.3274  0.000880 -0.0009    1.3265   
    22. B(C  19,N  18)                1.3779 -0.002579  0.0032    1.3811   
    23. B(C  19,C   3)                1.4136 -0.006702  0.0085    1.4221   
    24. B(C  20,C  19)                1.4058 -0.000185  0.0004    1.4062   
    25. B(C  20,C   0)                1.3971  0.001433 -0.0018    1.3953   
    26. B(H  21,C   0)                1.0927 -0.000195  0.0005    1.0932   
    27. B(H  22,C   1)                1.0931 -0.000063  0.0002    1.0934   
    28. B(H  23,C   2)                1.0915 -0.000269  0.0007    1.0922   
    29. B(H  24,N   4)                1.0148  0.000817 -0.0011    1.0137   
    30. B(H  25,C   7)                1.0912  0.000283 -0.0005    1.0907   
    31. B(H  26,C   8)                1.0908 -0.000378  0.0009    1.0917   
    32. B(H  27,N  10)                1.0158  0.000847 -0.0011    1.0147   
    33. B(H  28,C  12)                1.0910 -0.000452  0.0010    1.0919   
    34. B(H  29,C  13)                1.0936 -0.000104  0.0004    1.0940   
    35. B(H  30,C  13)                1.0939 -0.000203  0.0007    1.0946   
    36. B(H  31,C  14)                1.0940 -0.000214  0.0007    1.0946   
    37. B(H  32,C  14)                1.0936 -0.000093  0.0004    1.0940   
    38. B(H  33,C  17)                1.0919  0.000049  0.0002    1.0921   
    39. B(H  34,C  20)                1.0926 -0.000063  0.0003    1.0929   
    40. A(C   1,C   0,H  21)          119.57  0.001253   -0.23    119.33   
    41. A(C  20,C   0,H  21)          119.24 -0.000099    0.05    119.28   
    42. A(C   1,C   0,C  20)          121.20 -0.001154    0.19    121.38   
    43. A(C   0,C   1,H  22)          119.29  0.000118   -0.01    119.29   
    44. A(C   2,C   1,H  22)          119.09 -0.000063    0.03    119.11   
    45. A(C   0,C   1,C   2)          121.62 -0.000055   -0.02    121.60   
    46. A(C   3,C   2,H  23)          122.02  0.000880   -0.18    121.83   
    47. A(C   1,C   2,H  23)          121.43 -0.000194    0.05    121.47   
    48. A(C   1,C   2,C   3)          116.56 -0.000687    0.14    116.69   
    49. A(C   2,C   3,C  19)          122.85  0.001579   -0.27    122.58   
    50. A(N   4,C   3,C  19)          104.64 -0.000021    0.07    104.71   
    51. A(C   2,C   3,N   4)          132.51 -0.001557    0.20    132.71   
    52. A(C   3,N   4,H  24)          125.75  0.000049    0.00    125.76   
    53. A(C   5,N   4,H  24)          126.35 -0.000737    0.17    126.52   
    54. A(C   3,N   4,C   5)          107.89  0.000689   -0.17    107.72   
    55. A(C   6,C   5,N  18)          125.02  0.000862   -0.12    124.89   
    56. A(N   4,C   5,C   6)          123.58  0.001867   -0.32    123.26   
    57. A(N   4,C   5,N  18)          111.40 -0.002730    0.44    111.85   
    58. A(C   5,C   6,C   7)          118.52  0.000716   -0.12    118.40   
    59. A(C   7,C   6,C  17)          119.86 -0.001621    0.28    120.14   
    60. A(C   5,C   6,C  17)          121.62  0.000905   -0.16    121.46   
    61. A(C   8,C   7,H  25)          118.79 -0.002614    0.56    119.34   
    62. A(C   6,C   7,H  25)          118.83  0.001557   -0.33    118.50   
    63. A(C   6,C   7,C   8)          122.38  0.001057   -0.22    122.16   
    64. A(C   7,C   8,H  26)          121.14  0.000322   -0.05    121.09   
    65. A(C   7,C   8,C   9)          116.55 -0.001698    0.31    116.86   
    66. A(C   9,C   8,H  26)          122.31  0.001376   -0.27    122.05   
    67. A(N  10,C   9,C  16)          104.62 -0.000382    0.09    104.71   
    68. A(C   8,C   9,C  16)          122.64  0.002043   -0.35    122.29   
    69. A(C   8,C   9,N  10)          132.75 -0.001661    0.25    133.00   
    70. A(C  11,N  10,H  27)          126.10 -0.001038    0.24    126.35   
    71. A(C   9,N  10,H  27)          126.43  0.001498   -0.29    126.14   
    72. A(C   9,N  10,C  11)          107.47 -0.000461    0.04    107.52   
    73. A(N  10,C  11,C  12)          124.47  0.002968   -0.58    123.89   
    74. A(C  12,C  11,N  15)          123.17 -0.003007    0.59    123.75   
    75. A(N  10,C  11,N  15)          112.36  0.000039   -0.01    112.36   
    76. A(C  13,C  12,C  14)           59.72  0.001739   -0.32     59.40   
    77. A(C  14,C  12,H  28)          117.34 -0.000710    0.11    117.45   
    78. A(C  13,C  12,H  28)          117.32 -0.000661    0.13    117.45   
    79. A(C  11,C  12,H  28)          112.40  0.002130   -0.56    111.84   
    80. A(C  11,C  12,C  13)          120.29 -0.001592    0.45    120.74   
    81. A(C  11,C  12,C  14)          120.41 -0.001629    0.43    120.84   
    82. A(C  12,C  13,C  14)           60.14 -0.000874    0.16     60.30   
    83. A(C  14,C  13,H  30)          118.53  0.000189    0.07    118.61   
    84. A(C  12,C  13,H  30)          118.66  0.001249   -0.58    118.08   
    85. A(C  14,C  13,H  29)          118.18  0.000263    0.16    118.34   
    86. A(C  12,C  13,H  29)          117.19  0.000219   -0.16    117.03   
    87. A(H  29,C  13,H  30)          113.95 -0.000826    0.25    114.19   
    88. A(C  12,C  14,H  32)          117.11  0.000437   -0.18    116.93   
    89. A(C  13,C  14,H  31)          118.46  0.000299    0.12    118.58   
    90. A(C  12,C  14,H  31)          118.77  0.001105   -0.56    118.21   
    91. A(C  12,C  14,C  13)           60.13 -0.000866    0.17     60.30   
    92. A(H  31,C  14,H  32)          113.94 -0.000913    0.23    114.17   
    93. A(C  13,C  14,H  32)          118.25  0.000218    0.14    118.39   
    94. A(C  11,N  15,C  16)          105.29 -0.001371    0.24    105.53   
    95. A(N  15,C  16,C  17)          129.90 -0.001644    0.25    130.15   
    96. A(C   9,C  16,C  17)          119.84 -0.000531    0.11    119.95   
    97. A(C   9,C  16,N  15)          110.26  0.002175   -0.36    109.89   
    98. A(C   6,C  17,C  16)          118.74  0.000751   -0.14    118.59   
    99. A(C  16,C  17,H  33)          118.36 -0.001826    0.38    118.74   
   100. A(C   6,C  17,H  33)          122.90  0.001075   -0.24    122.66   
   101. A(C   5,N  18,C  19)          105.92 -0.000084   -0.01    105.90   
   102. A(N  18,C  19,C  20)          130.24 -0.001837    0.25    130.50   
   103. A(C   3,C  19,C  20)          119.61 -0.000310    0.08    119.68   
   104. A(C   3,C  19,N  18)          110.15  0.002147   -0.33    109.82   
   105. A(C   0,C  20,C  19)          118.17  0.000627   -0.11    118.06   
   106. A(C  19,C  20,H  34)          120.39 -0.000324    0.06    120.45   
   107. A(C   0,C  20,H  34)          121.44 -0.000303    0.05    121.49   
   108. D(H  22,C   1,C   0,C  20)   -179.99 -0.000003    0.01   -179.98   
   109. D(C   2,C   1,C   0,C  20)      0.01  0.000002   -0.01      0.01   
   110. D(H  22,C   1,C   0,H  21)      0.01 -0.000003    0.01      0.01   
   111. D(C   2,C   1,C   0,H  21)   -179.99  0.000002   -0.01   -180.00   
   112. D(C   3,C   2,C   1,H  22)    180.00  0.000006   -0.02    179.98   
   113. D(H  23,C   2,C   1,H  22)      0.00  0.000001   -0.00     -0.00   
   114. D(H  23,C   2,C   1,C   0)   -180.00 -0.000004    0.01   -179.99   
   115. D(C   3,C   2,C   1,C   0)     -0.00  0.000001   -0.00     -0.01   
   116. D(C  19,C   3,C   2,H  23)   -180.00 -0.000001    0.00   -180.00   
   117. D(C  19,C   3,C   2,C   1)      0.01 -0.000006    0.02      0.02   
   118. D(N   4,C   3,C   2,H  23)     -0.02  0.000009   -0.02     -0.04   
   119. D(N   4,C   3,C   2,C   1)    179.98  0.000004   -0.01    179.98   
   120. D(H  24,N   4,C   3,C   2)     -0.02  0.000042   -0.10     -0.12   
   121. D(H  24,N   4,C   3,C  19)    179.96  0.000051   -0.13    179.84   
   122. D(C   5,N   4,C   3,C   2)   -179.99 -0.000004    0.01   -179.98   
   123. D(C   5,N   4,C   3,C  19)     -0.01  0.000005   -0.01     -0.02   
   124. D(N  18,C   5,N   4,H  24)   -179.94 -0.000058    0.14   -179.80   
   125. D(N  18,C   5,N   4,C   3)      0.03 -0.000012    0.03      0.06   
   126. D(C   6,C   5,N   4,H  24)      0.01 -0.000042    0.10      0.11   
   127. D(C   6,C   5,N   4,C   3)    179.98  0.000005   -0.01    179.97   
   128. D(C  17,C   6,C   5,N   4)      0.07 -0.000138    0.58      0.65   
   129. D(C   7,C   6,C   5,N  18)      0.06 -0.000129    0.57      0.63   
   130. D(C  17,C   6,C   5,N  18)   -179.98 -0.000120    0.53   -179.45   
   131. D(C   7,C   6,C   5,N   4)   -179.88 -0.000147    0.61   -179.27   
   132. D(H  25,C   7,C   6,C  17)    179.97  0.000026   -0.06    179.90   
   133. D(H  25,C   7,C   6,C   5)     -0.08  0.000036   -0.09     -0.17   
   134. D(C   8,C   7,C   6,C  17)     -0.09  0.000042   -0.11     -0.20   
   135. D(C   8,C   7,C   6,C   5)    179.86  0.000052   -0.14    179.73   
   136. D(C   9,C   8,C   7,H  25)    179.97  0.000005   -0.00    179.96   
   137. D(C   9,C   8,C   7,C   6)      0.02 -0.000013    0.04      0.06   
   138. D(H  26,C   8,C   7,C   6)   -179.95 -0.000016    0.04   -179.91   
   139. D(H  26,C   8,C   7,H  25)     -0.01  0.000002   -0.00     -0.01   
   140. D(C  16,C   9,C   8,H  26)   -179.98 -0.000016    0.05   -179.93   
   141. D(C  16,C   9,C   8,C   7)      0.05 -0.000019    0.05      0.10   
   142. D(N  10,C   9,C   8,H  26)      0.03 -0.000011    0.03      0.06   
   143. D(N  10,C   9,C   8,C   7)   -179.94 -0.000014    0.03   -179.91   
   144. D(H  27,N  10,C   9,C  16)    179.98  0.000002   -0.01    179.98   
   145. D(H  27,N  10,C   9,C   8)     -0.03 -0.000002    0.01     -0.02   
   146. D(C  11,N  10,C   9,C  16)      0.01 -0.000012    0.02      0.04   
   147. D(C  11,N  10,C   9,C   8)   -180.00 -0.000016    0.04   -179.96   
   148. D(N  15,C  11,N  10,H  27)   -179.95  0.000002   -0.00   -179.95   
   149. D(N  15,C  11,N  10,C   9)      0.02  0.000016   -0.03     -0.01   
   150. D(C  12,C  11,N  10,H  27)      0.04 -0.000023    0.04      0.08   
   151. D(C  12,C  11,N  10,C   9)   -179.99 -0.000008    0.01   -179.98   
   152. D(H  28,C  12,C  11,N  10)   -179.58 -0.000111    0.25   -179.33   
   153. D(C  14,C  12,C  11,N  15)   -144.48  0.000343    0.33   -144.15   
   154. D(C  14,C  12,C  11,N  10)     35.54  0.000369    0.28     35.82   
   155. D(C  13,C  12,C  11,N  15)    145.05 -0.000465    0.36    145.41   
   156. D(C  13,C  12,C  11,N  10)    -34.93 -0.000439    0.31    -34.62   
   157. D(H  29,C  13,C  12,H  28)      1.22 -0.000146    0.37      1.59   
   158. D(H  29,C  13,C  12,C  14)    108.50 -0.000084    0.33    108.82   
   159. D(H  29,C  13,C  12,C  11)   -141.76 -0.000717    0.54   -141.22   
   160. D(C  14,C  13,C  12,H  28)   -107.28 -0.000062    0.04   -107.23   
   161. D(H  30,C  13,C  12,C  11)      1.44  0.000003   -0.18      1.26   
   162. D(C  14,C  13,C  12,C  11)    109.74 -0.000633    0.21    109.95   
   163. D(C  12,C  14,C  13,H  29)   -106.87  0.000186    0.21   -106.66   
   164. D(H  32,C  14,C  12,C  11)    141.84  0.000793   -0.55    141.29   
   165. D(H  31,C  14,C  12,H  28)   -144.60 -0.000298    0.45   -144.15   
   166. D(H  31,C  14,C  12,C  13)    108.16 -0.000442    0.45    108.61   
   167. D(H  31,C  14,C  12,C  11)     -1.39  0.000123    0.21     -1.18   
   168. D(C  13,C  14,C  12,H  28)    107.24  0.000145    0.00    107.24   
   169. D(C  12,C  14,C  13,H  30)    108.50  0.001104   -0.67    107.83   
   170. D(C  13,C  14,C  12,C  11)   -109.54  0.000566   -0.25   -109.79   
   171. D(H  32,C  14,C  13,C  12)    106.73  0.000100   -0.22    106.52   
   172. D(H  31,C  14,C  13,H  30)     -0.16  0.000217   -0.00     -0.16   
   173. D(H  31,C  14,C  13,H  29)    144.46 -0.000701    0.88    145.34   
   174. D(H  31,C  14,C  13,C  12)   -108.66 -0.000887    0.67   -107.99   
   175. D(C  16,N  15,C  11,C  12)    179.97  0.000010   -0.01    179.95   
   176. D(C  16,N  15,C  11,N  10)     -0.05 -0.000012    0.03     -0.02   
   177. D(C  17,C  16,N  15,C  11)   -179.92 -0.000017    0.04   -179.88   
   178. D(C   9,C  16,N  15,C  11)      0.05  0.000006   -0.01      0.04   
   179. D(C  17,C  16,C   9,N  10)    179.93  0.000023   -0.05    179.88   
   180. D(C  17,C  16,C   9,C   8)     -0.06  0.000027   -0.07     -0.13   
   181. D(N  15,C  16,C   9,N  10)     -0.04  0.000003   -0.01     -0.05   
   182. D(N  15,C  16,C   9,C   8)    179.97  0.000007   -0.02    179.95   
   183. D(H  33,C  17,C  16,N  15)      0.01  0.000033   -0.09     -0.08   
   184. D(H  33,C  17,C  16,C   9)   -179.96  0.000008   -0.03   -179.99   
   185. D(C   6,C  17,C  16,N  15)    179.96  0.000024   -0.06    179.90   
   186. D(C   6,C  17,C  16,C   9)     -0.01 -0.000002   -0.00     -0.01   
   187. D(H  33,C  17,C   6,C   7)   -179.97 -0.000044    0.12   -179.85   
   188. D(H  33,C  17,C   6,C   5)      0.07 -0.000055    0.15      0.22   
   189. D(C  16,C  17,C   6,C   7)      0.08 -0.000033    0.08      0.17   
   190. D(C  16,C  17,C   6,C   5)   -179.87 -0.000043    0.12   -179.75   
   191. D(C  19,N  18,C   5,C   6)   -179.99 -0.000005    0.01   -179.98   
   192. D(C  19,N  18,C   5,N   4)     -0.04  0.000013   -0.03     -0.07   
   193. D(C  20,C  19,N  18,C   5)   -179.98 -0.000006    0.02   -179.96   
   194. D(C   3,C  19,N  18,C   5)      0.03 -0.000008    0.02      0.05   
   195. D(C  20,C  19,C   3,N   4)    180.00  0.000000    0.00    180.00   
   196. D(C  20,C  19,C   3,C   2)     -0.02  0.000007   -0.02     -0.04   
   197. D(N  18,C  19,C   3,N   4)     -0.01  0.000001   -0.00     -0.02   
   198. D(N  18,C  19,C   3,C   2)    179.97  0.000009   -0.02    179.95   
   199. D(H  34,C  20,C  19,N  18)      0.01 -0.000005    0.01      0.02   
   200. D(H  34,C  20,C  19,C   3)    180.00 -0.000003    0.01    180.01   
   201. D(C   0,C  20,C  19,N  18)   -179.96 -0.000006    0.01   -179.95   
   202. D(C   0,C  20,C  19,C   3)      0.03 -0.000004    0.01      0.04   
   203. D(H  34,C  20,C   0,H  21)      0.01 -0.000002    0.00      0.02   
   204. D(H  34,C  20,C   0,C   1)   -179.99 -0.000001    0.00   -179.99   
   205. D(C  19,C  20,C   0,H  21)    179.98 -0.000001    0.00    179.98   
   206. D(C  19,C  20,C   0,C   1)     -0.02 -0.000000    0.00     -0.02   
    ----------------------------------------------------------------------------

Geometry step timings:
Preparation and reading OPT file:      0.009 s (45.000 %)
Internal coordinates            :      0.000 s ( 0.000 %)
B/P matrices and projection     :      0.003 s (15.000 %)
Hessian update/contruction      :      0.002 s (10.000 %)
Making the step                 :      0.003 s (15.000 %)
Converting the step to Cartesian:      0.000 s ( 0.000 %)
Storing new data                :      0.000 s ( 0.000 %)
Checking convergence            :      0.001 s ( 5.000 %)
Final printing                  :      0.002 s (10.000 %)
Total time                      :      0.020 s

Time for energy+gradient        :    270.445 s
Time for complete geometry iter :    270.553 s

         *************************************************************
         *                GEOMETRY OPTIMIZATION CYCLE   3            *
         *************************************************************
---------------------------------
CARTESIAN COORDINATES (ANGSTROEM)
---------------------------------
  C     -6.590733   -0.144037   -0.625544
  C     -6.466963    0.680764    0.515562
  C     -5.218391    1.008813    1.049880
  C     -4.097905    0.480364    0.399537
  N     -2.742741    0.586206    0.635173
  C     -2.089987   -0.149451   -0.331383
  C     -0.630218   -0.270218   -0.400999
  C     -0.065546   -1.042690   -1.450932
  C      1.309770   -1.204913   -1.594580
  C      2.123585   -0.569229   -0.650006
  N      3.492251   -0.504350   -0.477312
  C      3.733421    0.272561    0.634010
  C      5.077251    0.578046    1.144384
  C      6.192556   -0.443129    1.049029
  C      6.238823    0.790970    0.195027
  N      2.618388    0.713848    1.190622
  C      1.589016    0.206603    0.412335
  C      0.202614    0.357733    0.538764
  N     -2.939758   -0.720796   -1.174591
  C     -4.200777   -0.350954   -0.749702
  C     -5.468678   -0.667457   -1.268918
  H     -7.586294   -0.377118   -1.012481
  H     -7.369350    1.072183    0.992994
  H     -5.125198    1.646209    1.931898
  H     -2.311418    1.114141    1.385381
  H     -0.737523   -1.520115   -2.165182
  H      1.725041   -1.801383   -2.409195
  H      4.191073   -0.949526   -1.063014
  H      5.039550    1.200059    2.041026
  H      6.877327   -0.512251    1.899391
  H      5.972673   -1.403065    0.571287
  H      6.053845    0.691599   -0.879290
  H      6.953661    1.577068    0.455448
  H     -0.187131    0.958780    1.363049
  H     -5.562334   -1.305262   -2.151469

----------------------------
CARTESIAN COORDINATES (A.U.)
----------------------------
  NO LB      ZA    FRAG     MASS         X           Y           Z
   0 C     6.0000    0    12.011  -12.454680   -0.272190   -1.182107
   1 C     6.0000    0    12.011  -12.220790    1.286458    0.974271
   2 C     6.0000    0    12.011   -9.861331    1.906381    1.983986
   3 C     6.0000    0    12.011   -7.743918    0.907757    0.755015
   4 N     7.0000    0    14.007   -5.183030    1.107768    1.200303
   5 C     6.0000    0    12.011   -3.949503   -0.282421   -0.626223
   6 C     6.0000    0    12.011   -1.190939   -0.510637   -0.757778
   7 C     6.0000    0    12.011   -0.123863   -1.970399   -2.741865
   8 C     6.0000    0    12.011    2.475106   -2.276956   -3.013320
   9 C     6.0000    0    12.011    4.012995   -1.075687   -1.228334
  10 N     7.0000    0    14.007    6.599398   -0.953084   -0.901989
  11 C     6.0000    0    12.011    7.055143    0.515065    1.198106
  12 C     6.0000    0    12.011    9.594613    1.092348    2.162571
  13 C     6.0000    0    12.011   11.702235   -0.837393    1.982378
  14 C     6.0000    0    12.011   11.789666    1.494716    0.368548
  15 N     7.0000    0    14.007    4.948036    1.348977    2.249949
  16 C     6.0000    0    12.011    3.002806    0.390422    0.779200
  17 C     6.0000    0    12.011    0.382884    0.676018    1.018116
  18 N     7.0000    0    14.007   -5.555337   -1.362108   -2.219656
  19 C     6.0000    0    12.011   -7.938319   -0.663208   -1.416732
  20 C     6.0000    0    12.011  -10.334304   -1.261310   -2.397908
  21 H     1.0000    0     1.008  -14.336018   -0.712651   -1.913311
  22 H     1.0000    0     1.008  -13.926054    2.026132    1.876487
  23 H     1.0000    0     1.008   -9.685221    3.110883    3.650759
  24 H     1.0000    0     1.008   -4.367946    2.105422    2.617990
  25 H     1.0000    0     1.008   -1.393716   -2.872601   -4.091601
  26 H     1.0000    0     1.008    3.259855   -3.404120   -4.552718
  27 H     1.0000    0     1.008    7.919981   -1.794343   -2.008805
  28 H     1.0000    0     1.008    9.523370    2.267782    3.856981
  29 H     1.0000    0     1.008   12.996264   -0.968014    3.589329
  30 H     1.0000    0     1.008   11.286716   -2.651409    1.079577
  31 H     1.0000    0     1.008   11.440110    1.306934   -1.661618
  32 H     1.0000    0     1.008   13.140516    2.980226    0.860673
  33 H     1.0000    0     1.008   -0.353626    1.811831    2.575790
  34 H     1.0000    0     1.008  -10.511289   -2.466588   -4.065686

--------------------------------
INTERNAL COORDINATES (ANGSTROEM)
--------------------------------
 C      0   0   0     0.000000000000     0.00000000     0.00000000
 C      1   0   0     1.413414135716     0.00000000     0.00000000
 C      2   1   0     1.397155710423   121.60265135     0.00000000
 C      3   2   1     1.399176660823   116.69348802     0.00000000
 N      4   3   2     1.379563042682   132.70996088   179.97579110
 C      5   4   3     1.378952586749   107.71872680   180.01780253
 C      6   5   4     1.466409354226   123.25991203   179.97003579
 C      7   6   5     1.420538296858   118.39698559   180.73005274
 C      8   7   6     1.392280000479   122.15961725   179.72523199
 C      9   8   7     1.399503753112   116.86291570     0.06355157
 N     10   9   8     1.381042591391   133.00233043   180.09237739
 C     11  10   9     1.377240355233   107.51432033   180.04054414
 C     12  11  10     1.469585115441   123.89160564   180.01620361
 C     13  12  11     1.515188925721   120.73998582   325.37437709
 C     14  13  12     1.501485973802    60.29967823   109.95165018
 N     12  11  10     1.322062488819   112.35411695     0.00000000
 C     16  12  11     1.386590811711   105.52750688     0.00000000
 C     17  16  12     1.400334818764   130.15308386   180.12380437
 N      6   5   4     1.326478586603   111.84529547     0.05789088
 C     19   6   5     1.381116900103   105.90329239   359.93432153
 C      1   2   3     1.395315307606   121.38249247     0.00000000
 H      1   2   3     1.093247082779   119.33412067   180.00084671
 H      2   1   3     1.093367384704   119.28609592   180.01373694
 H      3   2   1     1.092205920499   121.47403203   180.01269114
 H      5   4   3     1.013690179252   125.75627100   359.87865632
 H      8   7   6     1.090705918615   118.49833294   359.82622147
 H      9   8   7     1.091706418394   121.09106989   180.09357338
 H     11  10   9     1.014682199877   126.13908099     0.00000000
 H     13  12  11     1.091920168490   111.84048054   180.66784366
 H     14  13  12     1.093985221946   117.02699959   218.77127574
 H     14  13  12     1.094560341702   118.07740247     1.26341926
 H     15  14  13     1.094645702856   118.58026062   252.01031659
 H     15  14  13     1.093967003018   118.38204221   106.51414787
 H     18  17  16     1.092064090060   118.74309592   359.91954273
 H     21   1   2     1.092914904493   121.48996596   180.01043998

---------------------------
INTERNAL COORDINATES (A.U.)
---------------------------
 C      0   0   0     0.000000000000     0.00000000     0.00000000
 C      1   0   0     2.670965630316     0.00000000     0.00000000
 C      2   1   0     2.640241659143   121.60265135     0.00000000
 C      3   2   1     2.644060701929   116.69348802     0.00000000
 N      4   3   2     2.606996335147   132.70996088   179.97579110
 C      5   4   3     2.605842740618   107.71872680   180.01780253
 C      6   5   4     2.771112079707   123.25991203   179.97003579
 C      7   6   5     2.684428343809   118.39698559   180.73005274
 C      8   7   6     2.631027902641   122.15961725   179.72523199
 C      9   8   7     2.644678816776   116.86291570     0.06355157
 N     10   9   8     2.609792277010   133.00233043   180.09237739
 C     11  10   9     2.602607091974   107.51432033   180.04054414
 C     12  11  10     2.777113398671   123.89160564   180.01620361
 C     13  12  11     2.863292110763   120.73998582   325.37437709
 C     14  13  12     2.837397284411    60.29967823   109.95165018
 N     12  11  10     2.498336035797   112.35411695     0.00000000
 C     16  12  11     2.620276893946   105.52750688     0.00000000
 C     17  16  12     2.646249303259   130.15308386   180.12380437
 N      6   5   4     2.506681251190   111.84529547     0.05789088
 C     19   6   5     2.609932700124   105.90329239   359.93432153
 C      1   2   3     2.636763801844   121.38249247     0.00000000
 H      1   2   3     2.065937583160   119.33412067   180.00084671
 H      2   1   3     2.066164920851   119.28609592   180.01373694
 H      3   2   1     2.063970071590   121.47403203   180.01269114
 H      5   4   3     1.915596823432   125.75627100   359.87865632
 H      8   7   6     2.061135478829   118.49833294   359.82622147
 H      9   8   7     2.063026149408   121.09106989   180.09357338
 H     11  10   9     1.917471470732   126.13908099     0.00000000
 H     13  12  11     2.063430078551   111.84048054   180.66784366
 H     14  13  12     2.067332464035   117.02699959   218.77127574
 H     14  13  12     2.068419282868   118.07740247     1.26341926
 H     15  14  13     2.068580592072   118.58026062   252.01031659
 H     15  14  13     2.067298035251   118.38204221   106.51414787
 H     18  17  16     2.063702050903   118.74309592   359.91954273
 H     21   1   2     2.065309857173   121.48996596   180.01043998

------------------------------------------------------------------------------
                   ___                                                        
                  /   \      - P O W E R E D   B Y -                         
                 /     \                                                     
                 |  |  |   _    _      __       _____    __    __             
                 |  |  |  | |  | |    /  \     |  _  \  |  |  /  |          
                  \  \/   | |  | |   /    \    | | | |  |  | /  /          
                 / \  \   | |__| |  /  /\  \   | |_| |  |  |/  /          
                |  |  |   |  __  | /  /__\  \  |    /   |      \           
                |  |  |   | |  | | |   __   |  |    \   |  |\   \          
                \     /   | |  | | |  |  |  |  | |\  \  |  | \   \       
                 \___/    |_|  |_| |__|  |__|  |_| \__\ |__|  \__/        
                                                                              
                      - O R C A' S   B I G   F R I E N D -                    
                                      &                                       
                       - I N T E G R A L  F E E D E R -                       
                                                                              
 v1 FN, 2020, v2 2021, v3 2022-2024                                           
------------------------------------------------------------------------------


----------------------
SHARK INTEGRAL PACKAGE
----------------------

Number of atoms                             ...     35
Number of basis functions                   ...    364
Number of shells                            ...    168
Maximum angular momentum                    ...      2
Integral batch strategy                     ... SHARK/LIBINT Hybrid
RI-J (if used) integral strategy            ... SPLIT-RIJ (Revised 2003 algorithm where possible)
Printlevel                                  ...      1
Contraction scheme used                     ... SEGMENTED contraction
Prescreening option                         ... SCHWARTZ
   Thresh                                   ... 2.500e-11
   Tcut                                     ... 2.500e-12
   Tpresel                                  ... 2.500e-12 
Coulomb Range Separation                    ... NOT USED
Exchange Range Separation                   ... NOT USED
Multipole approximations                    ... NOT USED
Finite Nucleus Model                        ... NOT USED
CABS basis                                  ... NOT available
Auxiliary Coulomb fitting basis             ... AVAILABLE
   # of basis functions in Aux-J            ...   1183
   # of shells in Aux-J                     ...    385
   Maximum angular momentum in Aux-J        ...      4
Auxiliary J/K fitting basis                 ... NOT available
Auxiliary Correlation fitting basis         ... NOT available
Auxiliary 'external' fitting basis          ... NOT available

Checking pre-screening integrals            ... done (  0.0 sec) Dimension = 168
   => SHARK Basis and OBASIS are compatible. Storing Pre-screening
Shell pair information
Shell pair cut-off parameter TPreSel        ...   2.5e-12
Total number of shell pairs                 ...     14196
Shell pairs after pre-screening             ...      9249
Total number of primitive shell pairs       ...     52318
Primitive shell pairs kept                  ...     22468
          la=0 lb=0:   2754 shell pairs
          la=1 lb=0:   3403 shell pairs
          la=1 lb=1:   1094 shell pairs
          la=2 lb=0:   1139 shell pairs
          la=2 lb=1:    728 shell pairs
          la=2 lb=2:    131 shell pairs

Checking whether 4 symmetric matrices of dimension 364 fit in memory
:Max Core in MB      =   2000.00
 MB in use           =     13.67
 MB left             =   1986.33
 MB needed           =      2.03
 Data fit in memory  = YES
Calculating RI/J V-Matrix + Cholesky decomp.... done (  0.1 sec)
Calculating Nuclear repulsion               ... done (  0.0 sec) ENN=   1447.459157635353 Eh

Diagonalization of the overlap matrix:
Smallest eigenvalue                        ... 2.375e-04
Time for diagonalization                   ...    0.012 sec
Threshold for overlap eigenvalues          ... 1.000e-07
Number of eigenvalues below threshold      ... 0
Time for construction of square roots      ...    0.010 sec
Total time needed                          ...    0.023 sec

-------------------
DFT GRID GENERATION
-------------------

General Integration Accuracy     IntAcc      ... 4.388
Radial Grid Type                 RadialGrid  ... OptM3 with GC (2021)
Angular Grid (max. ang.)         AngularGrid ... 4 (Lebedev-302)
Angular grid pruning method      GridPruning ... 4 (adaptive)
Weight generation scheme         WeightScheme... mBecke (2022)
Basis function cutoff            BFCut       ... 1.0000e-11
Integration weight cutoff        WCut        ... 1.0000e-14
Partially contracted basis set               ... off
Rotationally invariant grid construction     ... off
Angular grids for H and He will be reduced by one unit

Total number of grid points                  ...   170610
Total number of batches                      ...     2685
Average number of points per batch           ...       63
Average number of grid points per atom       ...     4875

--------------------
COSX GRID GENERATION
--------------------

GRIDX 1
-------
General Integration Accuracy     IntAcc      ... 3.816
Radial Grid Type                 RadialGrid  ... OptM3 with GC (2021)
Angular Grid (max. ang.)         AngularGrid ... 1 (Lebedev-50)
Angular grid pruning method      GridPruning ... 4 (adaptive)
Weight generation scheme         WeightScheme... mBecke (2022)
Basis function cutoff            BFCut       ... 1.0000e-11
Integration weight cutoff        WCut        ... 1.0000e-14
Partially contracted basis set               ... on
Rotationally invariant grid construction     ... off
Angular grids for H and He will be reduced by one unit

Total number of grid points                  ...    21676
Total number of batches                      ...      190
Average number of points per batch           ...      114
Average number of grid points per atom       ...      619
UseSFitting                                  ... on

GRIDX 2
-------
General Integration Accuracy     IntAcc      ... 4.020
Radial Grid Type                 RadialGrid  ... OptM3 with GC (2021)
Angular Grid (max. ang.)         AngularGrid ... 2 (Lebedev-110)
Angular grid pruning method      GridPruning ... 4 (adaptive)
Weight generation scheme         WeightScheme... mBecke (2022)
Basis function cutoff            BFCut       ... 1.0000e-11
Integration weight cutoff        WCut        ... 1.0000e-14
Partially contracted basis set               ... on
Rotationally invariant grid construction     ... off
Angular grids for H and He will be reduced by one unit

Total number of grid points                  ...    47660
Total number of batches                      ...      392
Average number of points per batch           ...      121
Average number of grid points per atom       ...     1362
UseSFitting                                  ... on

GRIDX 3
-------
General Integration Accuracy     IntAcc      ... 4.338
Radial Grid Type                 RadialGrid  ... OptM3 with GC (2021)
Angular Grid (max. ang.)         AngularGrid ... 3 (Lebedev-194)
Angular grid pruning method      GridPruning ... 4 (adaptive)
Weight generation scheme         WeightScheme... mBecke (2022)
Basis function cutoff            BFCut       ... 1.0000e-11
Integration weight cutoff        WCut        ... 1.0000e-14
Partially contracted basis set               ... on
Rotationally invariant grid construction     ... off
Angular grids for H and He will be reduced by one unit

Total number of grid points                  ...   104538
Total number of batches                      ...      836
Average number of points per batch           ...      125
Average number of grid points per atom       ...     2987
UseSFitting                                  ... on
Grids setup in   4.0 sec
Initializing property integral containers    ... done (  0.0 sec)

SHARK setup successfully completed in   4.4 seconds

Maximum memory used throughout the entire STARTUP-calculation: 70.6 MB
Occupation numbers will be reassigned to an Aufbau configuration
             **** ENERGY FILE WAS UPDATED (C:\Users\jabreumiranda\Radioprotection_Pipeline_Project\06_Quantum_DFT_ORCA\CHEMBL4952776_neutral_opt.en.tmp) ****
Finished Guess after   0.2 sec
Maximum memory used throughout the entire GUESS-calculation: 24.9 MB
--------------------
CPCM SOLVATION MODEL
--------------------
CPCM parameters:
  Epsilon                                         ...      80.1510
  Refrac                                          ...       1.3328
  Rsolv                                           ...       1.3000
  Surface type                                    ... GAUSSIAN VDW
  Discretization scheme                           ... Constant charge density
    Threshold for H atoms                         ...       5.0000 (charges/Ang^2)
    Threshold for non-H atoms                     ...       5.0000 (charges/Ang^2)
  Epsilon function type                           ...         CPCM
Solvent:                                          ... WATER
Radii:
  Scheme                                          ... Element-dependent radii
  Radius for C  used is    3.8550 Bohr (=   2.0400 Ang.)
  Radius for N  used is    3.5149 Bohr (=   1.8600 Ang.)
  Radius for H  used is    2.4944 Bohr (=   1.3200 Ang.)
Calculating surface                               ...        done! (  0.0s)
Cavity surface points                             ...         3188
Cavity Volume                                     ...    2195.8886
Cavity Surface-area                               ...    1132.8631
Calculating surface distance matrix               ...        done! (  0.1s)
Performing Cholesky decomposition & store         ...        done! (  0.3s)
Overall time for CPCM initialization              ...                 0.4s

----------------------------------------D-I-I-S--------------------------------------------
Iteration    Energy (Eh)           Delta-E    RMSDP     MaxDP     DIISErr   Damp  Time(sec)
-------------------------------------------------------------------------------------------
               ***  Starting incremental Fock matrix formation  ***
    1    -874.1292373735341243     0.00e+00  8.24e-05  2.89e-03  3.85e-03  0.700  20.4
                              *** Initializing SOSCF ***
---------------------------------------S-O-S-C-F--------------------------------------
Iteration    Energy (Eh)           Delta-E    RMSDP     MaxDP     MaxGrad    Time(sec)
--------------------------------------------------------------------------------------
    2    -874.1293819063871524    -1.45e-04  2.32e-04  8.51e-03  3.02e-03     8.5
               *** Restarting incremental Fock matrix formation ***
    3    -874.1297477065363637    -3.66e-04  5.48e-05  2.00e-03  2.84e-04    20.3
    4    -874.1297480945418101    -3.88e-07  2.97e-05  1.16e-03  4.62e-04    14.0
    5    -874.1297665952079115    -1.85e-05  8.70e-06  3.72e-04  6.27e-05    13.1
    6    -874.1297664617909504     1.33e-07  4.40e-06  2.19e-04  7.65e-05    11.4
    7    -874.1297669064929323    -4.45e-07  1.57e-06  5.97e-05  7.74e-06    10.4
    8    -874.1297669170794506    -1.06e-08  7.61e-07  3.40e-05  1.04e-05     9.4
    9    -874.1297669102746113     6.80e-09  4.13e-07  1.59e-05  2.27e-06     8.3
                 **** Energy Check signals convergence ****

               *****************************************************
               *                     SUCCESS                       *
               *           SCF CONVERGED AFTER   9 CYCLES          *
               *****************************************************

Recomputing exchange energy using gridx3       ... done (   30.822 sec)
Old exchange energy                            :    -23.883215813 Eh
New exchange energy                            :    -23.883227932 Eh
Exchange energy change after final integration :     -0.000012118 Eh
Total energy after final integration           :   -874.129779025 Eh
             **** ENERGY FILE WAS UPDATED (C:\Users\jabreumiranda\Radioprotection_Pipeline_Project\06_Quantum_DFT_ORCA\CHEMBL4952776_neutral_opt.en.tmp) ****

----------------
TOTAL SCF ENERGY
----------------

Total Energy       :       -874.12977902543480 Eh          -23786.28056 eV

Components:
Nuclear Repulsion  :       1447.45915763535277 Eh           39387.36609 eV
Electronic Energy  :      -2321.55518718827170 Eh          -63172.72828 eV
One Electron Energy:      -4057.26082054154995 Eh         -110403.67974 eV
Two Electron Energy:       1735.70563335327824 Eh           47230.95146 eV
CPCM Dielectric    :         -0.03373735404962 Eh              -0.91804 eV

Virial components:
Potential Energy   :      -1739.14486520962737 Eh          -47324.53772 eV
Kinetic Energy     :        865.01508618419246 Eh           23538.25716 eV
Virial Ratio       :          2.01053703338453

DFT components:
N(Alpha)           :       72.000033613750 electrons
N(Beta)            :       72.000033613750 electrons
N(Total)           :      144.000067227500 electrons
E(X)               :      -94.890333269126 Eh       
E(C)               :       -5.772473817727 Eh       
E(XC)              :     -100.662807086853 Eh       

CPCM Solvation Model Properties:
Surface-charge          :         -0.02849482120365
Corrected charge        :         -0.00000000000000
Outlying charge corr.   :          0.00004238495473 Eh               0.00115 eV
Free-energy (cav+disp)  :  This term is not implemented in the current solvation scheme

---------------
SCF CONVERGENCE
---------------

  Last Energy change         ...   -6.8048e-09  Tolerance :   1.0000e-08
  Last MAX-Density change    ...    1.5943e-05  Tolerance :   1.0000e-07
  Last RMS-Density change    ...    4.1304e-07  Tolerance :   5.0000e-09
  Last DIIS Error            ...    3.0237e-03  Tolerance :   5.0000e-07
  Last Orbital Gradient      ...    2.2661e-06  Tolerance :   1.0000e-05
  Last Orbital Rotation      ...    5.0571e-06  Tolerance :   1.0000e-05


Total SCF time: 0 days 0 hours 2 min 34 sec 
Finished LeanSCF after 154.9 sec

Maximum memory used throughout the entire LEANSCF-calculation: 98.4 MB

------------------------------------------------------------------------------
                         ORCA PROPERTY INTEGRAL CALCULATIONS
------------------------------------------------------------------------------

GBWName                                   ... C:\Users\jabreumiranda\Radioprotection_Pipeline_Project\06_Quantum_DFT_ORCA\CHEMBL4952776_neutral_opt.gbw
Number of atoms                           ...     35
Number of basis functions                 ...    364
Max core memory                           ...   2000 MB

Dipole integrals                          ... YES
Quadrupole integrals                      ...  NO
Linear momentum integrals                 ...  NO
Angular momentum integrals                ...  NO
Higher moments length integrals           ...  NO
Higher moments velocity integrals         ...  NO
Kinetic energy integrals                  ...  NO
GIAO right hand sides                     ...  NO
GIAO dipole derivative integrals          ...  NO
SOC integrals                             ...  NO
EPR diamagnetic integrals (GIAO)          ...  NO
EPR gauge integrals                       ...  NO
Field gradient integrals                  ...  NO (   0 nuclei)
Spin-dipole/Fermi contact integrals       ...  NO (   0 nuclei)
Contact density integrals                 ...  NO (   0 nuclei)
Nucleus-orbit integrals                   ...  NO (   0 nuclei)
Geometric perturbations                   ...  NO (  35 nuclei)

Choice of electric origin   ... Center of mass
Position of electric origin ... ( -0.5955, -0.0286, -0.0703) 
Choice of magnetic origin   ... GIAO
Position of magnetic origin ... (  0.0000,  0.0000,  0.0000) 

Calculating integrals                     ... Electric Dipole (Length)     done (  0.0 sec)

Property integrals calculated in   0.0 sec

Maximum memory used throughout the entire PROPINT-calculation: 24.0 MB


-------------------------------------------------------------------------------
                          DFT DISPERSION CORRECTION                            
                                                                               
                              DFTD3 V3.1  Rev 1                                
                          USING Becke-Johnson damping                          
-------------------------------------------------------------------------------
-------------------------   ----------------
Dispersion correction           -0.074582713
-------------------------   ----------------


-------------------------   --------------------
FINAL SINGLE POINT ENERGY      -874.204361738115
-------------------------   --------------------

------------------------------------------------------------------------------
                         ORCA SCF GRADIENT CALCULATION
------------------------------------------------------------------------------

Nuc. rep. gradient        (SHARK) ... done (  0.0 sec)
HCore & Overlap gradient  (SHARK) ... done (  0.8 sec)
Split-RIJ-J gradient      (SHARK) ... done (  5.0 sec)
COSX-gradient                     ... done ( 76.5 sec)
XC gradient                       ... done ( 12.8 sec)
CPCM gradient                     ... done (  4.6 sec)
Dispersion correction             ... done (  0.1 sec)

-------------------
DISPERSION GRADIENT
-------------------

   1   C   :   -0.000081404   -0.000087536   -0.000125624
   2   C   :   -0.000056931    0.000091193    0.000121589
   3   C   :   -0.000297120    0.000192051    0.000243983
   4   C   :    0.001332512   -0.000798631   -0.001008703
   5   N   :   -0.000480257   -0.000223040   -0.000339123
   6   C   :   -0.004144710    0.000229632    0.000038455
   7   C   :    0.000462974   -0.000028887   -0.000006096
   8   C   :    0.000268999   -0.000068032   -0.000077561
   9   C   :   -0.000024640   -0.000231606   -0.000326181
  10   C   :    0.000828445    0.000904331    0.001326837
  11   N   :   -0.000685956    0.000163333    0.000193636
  12   C   :   -0.003843037   -0.000673400   -0.001177515
  13   C   :    0.000336616    0.000167671    0.000258128
  14   C   :    0.000394622   -0.000082508    0.000176278
  15   C   :    0.000405728    0.000176103   -0.000002970
  16   N   :   -0.000148904   -0.000033248   -0.000052578
  17   C   :    0.003092451   -0.000292836   -0.000226212
  18   C   :    0.000054950    0.000028250    0.000047989
  19   N   :   -0.000294123    0.000111102    0.000135229
  20   C   :    0.002636857    0.000655347    0.001078010
  21   C   :   -0.000251874   -0.000142382   -0.000212118
  22   H   :   -0.000252222   -0.000059132   -0.000098130
  23   H   :   -0.000228832    0.000098429    0.000119860
  24   H   :   -0.000091137    0.000187974    0.000252141
  25   H   :    0.000039089    0.000194248    0.000268111
  26   H   :    0.000009657   -0.000190189   -0.000266082
  27   H   :    0.000027093   -0.000194536   -0.000271976
  28   H   :    0.000107467   -0.000191836   -0.000261652
  29   H   :    0.000069578    0.000154402    0.000226404
  30   H   :    0.000191645   -0.000109885    0.000140344
  31   H   :    0.000250430   -0.000247128    0.000057528
  32   H   :    0.000265356    0.000129611   -0.000203320
  33   H   :    0.000201015    0.000160087   -0.000046917
  34   H   :    0.000022432    0.000179471    0.000257261
  35   H   :   -0.000116766   -0.000168421   -0.000239022

Difference to translation invariance:
           :    0.0000000000   -0.0000000000    0.0000000000

Difference to rotation invariance:
           :    0.0000000000   -0.0000000000   -0.0000000000

Norm of the Dispersion gradient    ...    0.0079161696
RMS gradient                       ...    0.0007725391
MAX gradient                       ...    0.0041447099

------------------
CARTESIAN GRADIENT
------------------

   1   C   :   -0.000567471    0.000243872    0.000300256
   2   C   :    0.000423064   -0.000308892   -0.000380154
   3   C   :    0.000678225    0.000667030    0.000943046
   4   C   :   -0.000771729   -0.001153626   -0.001576192
   5   N   :   -0.000020567    0.000876121    0.001028283
   6   C   :    0.001451191    0.000329308    0.000670098
   7   C   :   -0.000388639   -0.000001667   -0.000055658
   8   C   :   -0.000981297    0.001033743    0.001587361
   9   C   :    0.001110039   -0.001150702   -0.001573718
  10   C   :   -0.002971049    0.001240568    0.001608726
  11   N   :    0.001577785   -0.000009477   -0.000007110
  12   C   :    0.002744776   -0.001865552   -0.002309941
  13   C   :    0.000696373    0.000328650    0.000030647
  14   C   :   -0.003357505   -0.000346618    0.000663940
  15   C   :   -0.003142113    0.001026070    0.000062325
  16   N   :   -0.000252355    0.000969110    0.001337905
  17   C   :    0.001342177   -0.000338708   -0.000376813
  18   C   :   -0.001689707   -0.000316347   -0.000610076
  19   N   :   -0.001121376   -0.000611753   -0.001110355
  20   C   :    0.000954800    0.000543751    0.000880251
  21   C   :   -0.000279883   -0.000220756   -0.000321235
  22   H   :    0.000119041   -0.000304067   -0.000400315
  23   H   :   -0.000021723    0.000144163    0.000204011
  24   H   :   -0.000301600    0.000075701    0.000086016
  25   H   :    0.000246048   -0.000218998   -0.000020706
  26   H   :    0.000989004   -0.000489984   -0.000651301
  27   H   :   -0.000378364   -0.000088026   -0.000153304
  28   H   :    0.000683129    0.000339272    0.000538039
  29   H   :   -0.000037378   -0.000082771    0.000018860
  30   H   :    0.000528241   -0.000283841   -0.000098538
  31   H   :    0.000752165   -0.000551224    0.000192562
  32   H   :    0.000952320    0.000192740   -0.000447825
  33   H   :    0.000400290    0.000089242   -0.000299770
  34   H   :    0.000676883    0.000355968    0.000391457
  35   H   :   -0.000042794   -0.000112299   -0.000150772

Difference to translation invariance:
           :    0.0000000000    0.0000000000    0.0000000000

Difference to rotation invariance:
           :   -0.0001354057    0.0003892230    0.0010532170

Norm of the Cartesian gradient     ...    0.0098194908
RMS gradient                       ...    0.0009582842
MAX gradient                       ...    0.0033575045

-------
TIMINGS
-------

Total SCF gradient time     ....       99.717 sec

Densities                   ....       0.004 sec  (  0.0%)
One electron gradient       ....       0.843 sec  (  0.8%)
RI-J Coulomb gradient       ....       5.015 sec  (  5.0%)
COSX gradient               ....      76.462 sec  ( 76.7%)
XC gradient                 ....      12.762 sec  ( 12.8%)
CPCM gradient               ....       4.565 sec  (  4.6%)
   A-Matrix (El+Nuc)        ....       0.510 sec  (  0.5%)
   Potential                ....       4.055 sec  (  4.1%)

Maximum memory used throughout the entire SCFGRAD-calculation: 53.0 MB
------------------------------------------------------------------------------
                         ORCA GEOMETRY RELAXATION STEP
------------------------------------------------------------------------------

Reading the OPT-File                    .... done
Getting information on internals        .... done
Copying old internal coords+grads       .... done
Making the new internal coordinates     .... (2022 redundants) done
Validating the new internal coordinates .... (2022 redundants) done
Calculating the B-matrix                .... done
Calculating the G,G- and P matrices     .... done
Transforming gradient to internals      .... done
Projecting the internal gradient        .... done
Number of atoms                         ....  35
Number of internal coordinates          .... 206
Current Energy                          ....  -874.204361738 Eh
Current gradient norm                   ....     0.009819491 Eh/bohr
Maximum allowed component of the step   ....  0.300
Current trust radius                    ....  0.450
Updating the Hessian (BFGS)             .... done
Forming the augmented Hessian           .... done
Diagonalizing the augmented Hessian     .... done
Last element of RFO vector              ....  0.999209812
Lowest eigenvalues of augmented Hessian:
 -0.000160568  0.009995082  0.014675204  0.021016666  0.021960576
Length of the computed step             ....  0.039777529
The final length of the internal step   ....  0.039777529
Converting the step to Cartesian space:
 Initial RMS(Int)=    0.0027714318
Transforming coordinates:
 Iter   0:  RMS(Cart)=    0.0109524078 RMS(Int)=    0.6190257177
done
Storing new coordinates                 .... done
The predicted energy change is          ....    -0.000080411
Previously predicted energy change      ....    -0.000650553
Actually observed energy change         ....    -0.000712388
Ratio of predicted to observed change   ....     1.095048691
New trust radius                        ....     0.675000000

                                .--------------------.
          ----------------------|Geometry convergence|-------------------------
          Item                value                   Tolerance       Converged
          ---------------------------------------------------------------------
          Energy change      -0.0007123876            0.0000050000      NO
          RMS gradient        0.0004757438            0.0001000000      NO
          MAX gradient        0.0028159536            0.0003000000      NO
          RMS step            0.0027714318            0.0020000000      NO
          MAX step            0.0124432587            0.0040000000      NO
          -------------------------------------------------------------------------
          ........................................................
          Max(Bonds)      0.0026      Max(Angles)    0.35
          Max(Dihed)        0.71      Max(Improp)    0.00
          ---------------------------------------------------------------------

The optimization has not yet converged - more geometry cycles are needed


    ---------------------------------------------------------------------------
                         Redundant Internal Coordinates
                            (Angstroem and degrees)

        Definition                    Value    dE/dq     Step     New-Value
    ----------------------------------------------------------------------------
     1. B(C   1,C   0)                1.4134  0.000315  0.0002    1.4136   
     2. B(C   2,C   1)                1.3972  0.000274 -0.0004    1.3967   
     3. B(C   3,C   2)                1.3992  0.000192 -0.0001    1.3991   
     4. B(N   4,C   3)                1.3796  0.000427 -0.0001    1.3795   
     5. B(C   5,N   4)                1.3790  0.000370 -0.0005    1.3785   
     6. B(C   6,C   5)                1.4664 -0.000738  0.0009    1.4674   
     7. B(C   7,C   6)                1.4205  0.000105  0.0004    1.4209   
     8. B(C   8,C   7)                1.3923  0.000205 -0.0006    1.3917   
     9. B(C   9,C   8)                1.3995  0.000364 -0.0001    1.3994   
    10. B(N  10,C   9)                1.3810  0.001633 -0.0013    1.3797   
    11. B(C  11,N  10)                1.3772 -0.001428  0.0017    1.3790   
    12. B(C  12,C  11)                1.4696 -0.002816  0.0017    1.4713   
    13. B(C  13,C  12)                1.5152 -0.001401  0.0026    1.5178   
    14. B(C  14,C  13)                1.5015  0.001249 -0.0021    1.4994   
    15. B(C  14,C  12)                1.5152 -0.001372  0.0026    1.5178   
    16. B(N  15,C  11)                1.3221  0.000744 -0.0004    1.3217   
    17. B(C  16,N  15)                1.3866  0.000088  0.0005    1.3870   
    18. B(C  16,C   9)                1.4199 -0.000516  0.0016    1.4215   
    19. B(C  17,C  16)                1.4003  0.000588 -0.0008    1.3996   
    20. B(C  17,C   6)                1.4040 -0.000208  0.0002    1.4041   
    21. B(N  18,C   5)                1.3265  0.001200 -0.0010    1.3254   
    22. B(C  19,N  18)                1.3811 -0.000339  0.0008    1.3819   
    23. B(C  19,C   3)                1.4221 -0.000393  0.0017    1.4238   
    24. B(C  20,C  19)                1.4062  0.000466 -0.0003    1.4058   
    25. B(C  20,C   0)                1.3953  0.000093 -0.0003    1.3950   
    26. B(H  21,C   0)                1.0932  0.000098 -0.0000    1.0932   
    27. B(H  22,C   1)                1.0934  0.000159 -0.0002    1.0932   
    28. B(H  23,C   2)                1.0922  0.000089  0.0000    1.0922   
    29. B(H  24,N   4)                1.0137 -0.000024  0.0001    1.0137   
    30. B(H  25,C   7)                1.0907  0.000032 -0.0001    1.0906   
    31. B(H  26,C   8)                1.0917  0.000019  0.0002    1.0919   
    32. B(H  27,N  10)                1.0147  0.000011  0.0000    1.0147   
    33. B(H  28,C  12)                1.0919 -0.000031  0.0002    1.0921   
    34. B(H  29,C  13)                1.0940  0.000273 -0.0002    1.0937   
    35. B(H  30,C  13)                1.0946  0.000252 -0.0002    1.0944   
    36. B(H  31,C  14)                1.0946  0.000259 -0.0002    1.0945   
    37. B(H  32,C  14)                1.0940  0.000252 -0.0002    1.0938   
    38. B(H  33,C  17)                1.0921  0.000250 -0.0002    1.0919   
    39. B(H  34,C  20)                1.0929  0.000190 -0.0001    1.0928   
    40. A(C   1,C   0,H  21)          119.33  0.000617   -0.13    119.20   
    41. A(C  20,C   0,H  21)          119.28 -0.000427    0.08    119.36   
    42. A(C   1,C   0,C  20)          121.38 -0.000190    0.05    121.43   
    43. A(C   0,C   1,H  22)          119.29  0.000023   -0.01    119.28   
    44. A(C   2,C   1,H  22)          119.11 -0.000381    0.06    119.17   
    45. A(C   0,C   1,C   2)          121.60  0.000357   -0.06    121.55   
    46. A(C   3,C   2,H  23)          121.83  0.000564   -0.11    121.72   
    47. A(C   1,C   2,H  23)          121.47 -0.000076    0.02    121.50   
    48. A(C   1,C   2,C   3)          116.69 -0.000489    0.09    116.78   
    49. A(C   2,C   3,C  19)          122.58  0.000371   -0.09    122.49   
    50. A(N   4,C   3,C  19)          104.71  0.000330   -0.02    104.69   
    51. A(C   2,C   3,N   4)          132.71 -0.000701    0.11    132.82   
    52. A(C   3,N   4,H  24)          125.76  0.000490   -0.07    125.69   
    53. A(C   5,N   4,H  24)          126.52 -0.000067    0.05    126.57   
    54. A(C   3,N   4,C   5)          107.72 -0.000423    0.03    107.74   
    55. A(C   6,C   5,N  18)          124.89 -0.000058   -0.01    124.89   
    56. A(N   4,C   5,C   6)          123.26  0.000028   -0.04    123.22   
    57. A(N   4,C   5,N  18)          111.85  0.000030    0.05    111.90   
    58. A(C   5,C   6,C   7)          118.40  0.000274   -0.06    118.34   
    59. A(C   7,C   6,C  17)          120.14 -0.000156    0.06    120.21   
    60. A(C   5,C   6,C  17)          121.46 -0.000118   -0.01    121.45   
    61. A(C   8,C   7,H  25)          119.34 -0.001613    0.34    119.68   
    62. A(C   6,C   7,H  25)          118.50  0.001026   -0.23    118.27   
    63. A(C   6,C   7,C   8)          122.16  0.000587   -0.12    122.04   
    64. A(C   7,C   8,H  26)          121.09 -0.000005    0.01    121.10   
    65. A(C   7,C   8,C   9)          116.86 -0.000852    0.16    117.02   
    66. A(C   9,C   8,H  26)          122.05  0.000857   -0.17    121.88   
    67. A(N  10,C   9,C  16)          104.71  0.000041    0.01    104.71   
    68. A(C   8,C   9,C  16)          122.29  0.000612   -0.13    122.16   
    69. A(C   8,C   9,N  10)          133.00 -0.000654    0.13    133.13   
    70. A(C  11,N  10,H  27)          126.35 -0.000593    0.14    126.49   
    71. A(C   9,N  10,H  27)          126.14  0.001195   -0.23    125.91   
    72. A(C   9,N  10,C  11)          107.51 -0.000602    0.08    107.60   
    73. A(N  10,C  11,C  12)          123.89  0.000217   -0.12    123.77   
    74. A(C  12,C  11,N  15)          123.75 -0.001132    0.24    123.99   
    75. A(N  10,C  11,N  15)          112.35  0.000915   -0.12    112.24   
    76. A(C  13,C  12,C  14)           59.40  0.001055   -0.21     59.20   
    77. A(C  14,C  12,H  28)          117.45  0.000003   -0.07    117.37   
    78. A(C  13,C  12,H  28)          117.45  0.000029   -0.04    117.41   
    79. A(C  11,C  12,H  28)          111.84  0.000744   -0.20    111.64   
    80. A(C  11,C  12,C  13)          120.74 -0.000984    0.32    121.06   
    81. A(C  11,C  12,C  14)          120.84 -0.000929    0.25    121.08   
    82. A(C  12,C  13,C  14)           60.30 -0.000519    0.10     60.40   
    83. A(C  14,C  13,H  30)          118.60  0.000205    0.00    118.61   
    84. A(C  12,C  13,H  30)          118.08  0.000697   -0.31    117.77   
    85. A(C  14,C  13,H  29)          118.34  0.000217    0.11    118.45   
    86. A(C  12,C  13,H  29)          117.03  0.000171   -0.13    116.89   
    87. A(H  29,C  13,H  30)          114.18 -0.000578    0.16    114.34   
    88. A(C  12,C  14,H  32)          116.92  0.000301   -0.12    116.80   
    89. A(C  13,C  14,H  31)          118.58  0.000144    0.06    118.64   
    90. A(C  12,C  14,H  31)          118.20  0.000652   -0.35    117.86   
    91. A(C  12,C  14,C  13)           60.30 -0.000536    0.11     60.40   
    92. A(H  31,C  14,H  32)          114.16 -0.000572    0.16    114.32   
    93. A(C  13,C  14,H  32)          118.38  0.000200    0.08    118.46   
    94. A(C  11,N  15,C  16)          105.53 -0.000621    0.11    105.64   
    95. A(N  15,C  16,C  17)          130.15 -0.000142    0.05    130.21   
    96. A(C   9,C  16,C  17)          119.95 -0.000124    0.03    119.98   
    97. A(C   9,C  16,N  15)          109.90  0.000267   -0.09    109.81   
    98. A(C   6,C  17,C  16)          118.59 -0.000068   -0.01    118.58   
    99. A(C  16,C  17,H  33)          118.74 -0.000810    0.19    118.93   
   100. A(C   6,C  17,H  33)          122.66  0.000877   -0.18    122.48   
   101. A(C   5,N  18,C  19)          105.90 -0.000300    0.03    105.93   
   102. A(N  18,C  19,C  20)          130.50 -0.000408    0.08    130.58   
   103. A(C   3,C  19,C  20)          119.68  0.000046    0.00    119.69   
   104. A(C   3,C  19,N  18)          109.82  0.000363   -0.08    109.74   
   105. A(C   0,C  20,C  19)          118.06 -0.000095   -0.00    118.06   
   106. A(C  19,C  20,H  34)          120.45  0.000075   -0.00    120.45   
   107. A(C   0,C  20,H  34)          121.49  0.000020    0.00    121.49   
   108. D(H  22,C   1,C   0,C  20)   -179.98  0.000001   -0.00   -179.98   
   109. D(C   2,C   1,C   0,C  20)      0.01  0.000004   -0.01     -0.00   
   110. D(H  22,C   1,C   0,H  21)      0.01 -0.000000    0.00      0.02   
   111. D(C   2,C   1,C   0,H  21)   -180.00  0.000002   -0.01   -180.00   
   112. D(C   3,C   2,C   1,H  22)    179.98  0.000002   -0.01    179.97   
   113. D(H  23,C   2,C   1,H  22)     -0.00 -0.000000    0.00     -0.00   
   114. D(H  23,C   2,C   1,C   0)   -179.99 -0.000002    0.01   -179.98   
   115. D(C   3,C   2,C   1,C   0)     -0.01 -0.000000    0.00     -0.01   
   116. D(C  19,C   3,C   2,H  23)   -180.00 -0.000003    0.01   -179.99   
   117. D(C  19,C   3,C   2,C   1)      0.02 -0.000005    0.01      0.04   
   118. D(N   4,C   3,C   2,H  23)     -0.04  0.000002   -0.01     -0.05   
   119. D(N   4,C   3,C   2,C   1)    179.98  0.000000   -0.00    179.97   
   120. D(H  24,N   4,C   3,C   2)     -0.12  0.000056   -0.13     -0.26   
   121. D(H  24,N   4,C   3,C  19)    179.84  0.000061   -0.15    179.69   
   122. D(C   5,N   4,C   3,C   2)   -179.98 -0.000008    0.02   -179.96   
   123. D(C   5,N   4,C   3,C  19)     -0.02 -0.000003    0.00     -0.02   
   124. D(N  18,C   5,N   4,H  24)   -179.80 -0.000063    0.15   -179.65   
   125. D(N  18,C   5,N   4,C   3)      0.06  0.000002    0.00      0.06   
   126. D(C   6,C   5,N   4,H  24)      0.11 -0.000058    0.14      0.25   
   127. D(C   6,C   5,N   4,C   3)    179.97  0.000008   -0.02    179.95   
   128. D(C  17,C   6,C   5,N   4)      0.65 -0.000158    0.71      1.36   
   129. D(C   7,C   6,C   5,N  18)      0.63 -0.000151    0.69      1.32   
   130. D(C  17,C   6,C   5,N  18)   -179.45 -0.000152    0.69   -178.76   
   131. D(C   7,C   6,C   5,N   4)   -179.27 -0.000157    0.71   -178.56   
   132. D(H  25,C   7,C   6,C  17)    179.90  0.000015   -0.04    179.86   
   133. D(H  25,C   7,C   6,C   5)     -0.17  0.000014   -0.04     -0.22   
   134. D(C   8,C   7,C   6,C  17)     -0.20  0.000014   -0.05     -0.25   
   135. D(C   8,C   7,C   6,C   5)    179.73  0.000013   -0.05    179.67   
   136. D(C   9,C   8,C   7,H  25)    179.96  0.000002   -0.00    179.96   
   137. D(C   9,C   8,C   7,C   6)      0.06 -0.000001    0.01      0.07   
   138. D(H  26,C   8,C   7,C   6)   -179.91 -0.000003    0.01   -179.89   
   139. D(H  26,C   8,C   7,H  25)     -0.01 -0.000001    0.01     -0.00   
   140. D(C  16,C   9,C   8,H  26)   -179.93 -0.000008    0.03   -179.91   
   141. D(C  16,C   9,C   8,C   7)      0.10 -0.000011    0.03      0.13   
   142. D(N  10,C   9,C   8,H  26)      0.06 -0.000004    0.01      0.08   
   143. D(N  10,C   9,C   8,C   7)   -179.91 -0.000006    0.02   -179.89   
   144. D(H  27,N  10,C   9,C  16)    179.98 -0.000012    0.02    180.00   
   145. D(H  27,N  10,C   9,C   8)     -0.02 -0.000016    0.03      0.01   
   146. D(C  11,N  10,C   9,C  16)      0.04  0.000002    0.00      0.04   
   147. D(C  11,N  10,C   9,C   8)   -179.96 -0.000002    0.01   -179.95   
   148. D(N  15,C  11,N  10,H  27)   -179.95 -0.000000   -0.00   -179.95   
   149. D(N  15,C  11,N  10,C   9)     -0.01 -0.000013    0.02      0.01   
   150. D(C  12,C  11,N  10,H  27)      0.08 -0.000008    0.02      0.10   
   151. D(C  12,C  11,N  10,C   9)   -179.98 -0.000021    0.04   -179.94   
   152. D(H  28,C  12,C  11,N  10)   -179.33 -0.000001    0.06   -179.27   
   153. D(C  14,C  12,C  11,N  15)   -144.15  0.000224    0.17   -143.98   
   154. D(C  14,C  12,C  11,N  10)     35.82  0.000233    0.14     35.96   
   155. D(C  13,C  12,C  11,N  15)    145.41 -0.000277    0.19    145.60   
   156. D(C  13,C  12,C  11,N  10)    -34.63 -0.000268    0.16    -34.46   
   157. D(H  29,C  13,C  12,H  28)      1.59 -0.000362    0.37      1.96   
   158. D(H  29,C  13,C  12,C  14)    108.82  0.000009    0.23    109.05   
   159. D(H  29,C  13,C  12,C  11)   -141.23 -0.000290    0.31   -140.92   
   160. D(C  14,C  13,C  12,H  28)   -107.23 -0.000370    0.14   -107.09   
   161. D(H  30,C  13,C  12,C  11)      1.26 -0.000061   -0.09      1.17   
   162. D(C  14,C  13,C  12,C  11)    109.95 -0.000299    0.08    110.04   
   163. D(C  12,C  14,C  13,H  29)   -106.66  0.000090    0.17   -106.49   
   164. D(H  32,C  14,C  12,C  11)    141.30  0.000459   -0.39    140.91   
   165. D(H  31,C  14,C  12,H  28)   -144.15  0.000112    0.17   -143.99   
   166. D(H  31,C  14,C  12,C  13)    108.60 -0.000301    0.26    108.86   
   167. D(H  31,C  14,C  12,C  11)     -1.18  0.000086    0.05     -1.13   
   168. D(C  13,C  14,C  12,H  28)    107.24  0.000414   -0.09    107.15   
   169. D(C  12,C  14,C  13,H  30)    107.83  0.000559   -0.34    107.48   
   170. D(C  13,C  14,C  12,C  11)   -109.79  0.000387   -0.21   -110.00   
   171. D(H  32,C  14,C  13,C  12)    106.51  0.000068   -0.14    106.38   
   172. D(H  31,C  14,C  13,H  30)     -0.16  0.000035    0.07     -0.10   
   173. D(H  31,C  14,C  13,H  29)    145.35 -0.000434    0.58    145.93   
   174. D(H  31,C  14,C  13,C  12)   -107.99 -0.000523    0.41   -107.58   
   175. D(C  16,N  15,C  11,C  12)    179.95  0.000027   -0.05    179.90   
   176. D(C  16,N  15,C  11,N  10)     -0.02  0.000018   -0.03     -0.05   
   177. D(C  17,C  16,N  15,C  11)   -179.88 -0.000014    0.03   -179.84   
   178. D(C   9,C  16,N  15,C  11)      0.04 -0.000017    0.03      0.07   
   179. D(C  17,C  16,C   9,N  10)    179.88  0.000006   -0.02    179.86   
   180. D(C  17,C  16,C   9,C   8)     -0.12  0.000010   -0.03     -0.16   
   181. D(N  15,C  16,C   9,N  10)     -0.05  0.000009   -0.02     -0.07   
   182. D(N  15,C  16,C   9,C   8)    179.95  0.000012   -0.03    179.92   
   183. D(H  33,C  17,C  16,N  15)     -0.08  0.000030   -0.09     -0.17   
   184. D(H  33,C  17,C  16,C   9)   -179.99  0.000033   -0.09   -180.08   
   185. D(C   6,C  17,C  16,N  15)    179.90  0.000000   -0.01    179.89   
   186. D(C   6,C  17,C  16,C   9)     -0.01  0.000003   -0.01     -0.02   
   187. D(H  33,C  17,C   6,C   7)   -179.85 -0.000047    0.13   -179.72   
   188. D(H  33,C  17,C   6,C   5)      0.22 -0.000046    0.13      0.36   
   189. D(C  16,C  17,C   6,C   7)      0.17 -0.000016    0.05      0.22   
   190. D(C  16,C  17,C   6,C   5)   -179.75 -0.000015    0.05   -179.70   
   191. D(C  19,N  18,C   5,C   6)   -179.98 -0.000006    0.01   -179.96   
   192. D(C  19,N  18,C   5,N   4)     -0.07 -0.000001   -0.00     -0.07   
   193. D(C  20,C  19,N  18,C   5)   -179.96 -0.000003    0.01   -179.96   
   194. D(C   3,C  19,N  18,C   5)      0.05 -0.000001    0.01      0.06   
   195. D(C  20,C  19,C   3,N   4)    180.00  0.000004   -0.01    179.99   
   196. D(C  20,C  19,C   3,C   2)     -0.04  0.000007   -0.02     -0.06   
   197. D(N  18,C  19,C   3,N   4)     -0.02  0.000002   -0.01     -0.02   
   198. D(N  18,C  19,C   3,C   2)    179.95  0.000006   -0.02    179.93   
   199. D(H  34,C  20,C  19,N  18)      0.02 -0.000002    0.01      0.03   
   200. D(H  34,C  20,C  19,C   3)   -179.99 -0.000004    0.01   -179.99   
   201. D(C   0,C  20,C  19,N  18)   -179.95 -0.000002    0.01   -179.94   
   202. D(C   0,C  20,C  19,C   3)      0.04 -0.000004    0.01      0.05   
   203. D(H  34,C  20,C   0,H  21)      0.02 -0.000000    0.00      0.02   
   204. D(H  34,C  20,C   0,C   1)   -179.99 -0.000002    0.00   -179.98   
   205. D(C  19,C  20,C   0,H  21)    179.98  0.000000   -0.00    179.98   
   206. D(C  19,C  20,C   0,C   1)     -0.02 -0.000001    0.00     -0.02   
    ----------------------------------------------------------------------------

Geometry step timings:
Preparation and reading OPT file:      0.009 s (45.000 %)
Internal coordinates            :      0.000 s ( 0.000 %)
B/P matrices and projection     :      0.003 s (15.000 %)
Hessian update/contruction      :      0.003 s (15.000 %)
Making the step                 :      0.002 s (10.000 %)
Converting the step to Cartesian:      0.000 s ( 0.000 %)
Storing new data                :      0.001 s ( 5.000 %)
Checking convergence            :      0.000 s ( 0.000 %)
Final printing                  :      0.002 s (10.000 %)
Total time                      :      0.020 s

Time for energy+gradient        :    259.691 s
Time for complete geometry iter :    259.802 s

         *************************************************************
         *                GEOMETRY OPTIMIZATION CYCLE   4            *
         *************************************************************
---------------------------------
CARTESIAN COORDINATES (ANGSTROEM)
---------------------------------
  C     -6.591822   -0.148366   -0.622621
  C     -6.468220    0.685546    0.512105
  C     -5.219505    1.017343    1.042619
  C     -4.098455    0.484567    0.396976
  N     -2.743070    0.591596    0.630178
  C     -2.091481   -0.151184   -0.330993
  C     -0.630738   -0.271824   -0.400286
  C     -0.066646   -1.039927   -1.454204
  C      1.308403   -1.199826   -1.597163
  C      2.123690   -0.568822   -0.650926
  N      3.490944   -0.503390   -0.477695
  C      3.733252    0.269088    0.638596
  C      5.080272    0.571846    1.147044
  C      6.203110   -0.444208    1.043426
  C      6.244299    0.793785    0.198604
  N      2.617460    0.705672    1.196517
  C      1.587248    0.202154    0.416107
  C      0.201525    0.351860    0.543044
  N     -2.940479   -0.728773   -1.169091
  C     -4.202585   -0.356447   -0.747146
  C     -5.470637   -0.676777   -1.262702
  H     -7.588354   -0.383463   -1.005764
  H     -7.370667    1.080209    0.986393
  H     -5.124939    1.661503    1.919616
  H     -2.311657    1.127116    1.375009
  H     -0.742424   -1.512483   -2.167957
  H      1.725346   -1.792199   -2.414125
  H      4.187501   -0.946246   -1.067841
  H      5.041697    1.188483    2.047619
  H      6.885008   -0.516562    1.895509
  H      5.981839   -1.401019    0.560436
  H      6.053485    0.702593   -0.875254
  H      6.953519    1.582841    0.464475
  H     -0.192003    0.946643    1.369800
  H     -5.565017   -1.321329   -2.140103

----------------------------
CARTESIAN COORDINATES (A.U.)
----------------------------
  NO LB      ZA    FRAG     MASS         X           Y           Z
   0 C     6.0000    0    12.011  -12.456739   -0.280371   -1.176583
   1 C     6.0000    0    12.011  -12.223164    1.295495    0.967739
   2 C     6.0000    0    12.011   -9.863435    1.922499    1.970265
   3 C     6.0000    0    12.011   -7.744957    0.915699    0.750175
   4 N     7.0000    0    14.007   -5.183652    1.117955    1.190864
   5 C     6.0000    0    12.011   -3.952326   -0.285697   -0.625487
   6 C     6.0000    0    12.011   -1.191923   -0.513673   -0.756431
   7 C     6.0000    0    12.011   -0.125942   -1.965177   -2.748048
   8 C     6.0000    0    12.011    2.472524   -2.267342   -3.018201
   9 C     6.0000    0    12.011    4.013193   -1.074917   -1.230072
  10 N     7.0000    0    14.007    6.596929   -0.951270   -0.902714
  11 C     6.0000    0    12.011    7.054824    0.508503    1.206772
  12 C     6.0000    0    12.011    9.600322    1.080632    2.167600
  13 C     6.0000    0    12.011   11.722179   -0.839432    1.971789
  14 C     6.0000    0    12.011   11.800014    1.500036    0.375307
  15 N     7.0000    0    14.007    4.946283    1.333527    2.261089
  16 C     6.0000    0    12.011    2.999465    0.382016    0.786328
  17 C     6.0000    0    12.011    0.380828    0.664920    1.026205
  18 N     7.0000    0    14.007   -5.556701   -1.377182   -2.209262
  19 C     6.0000    0    12.011   -7.941735   -0.673587   -1.411901
  20 C     6.0000    0    12.011  -10.338006   -1.278924   -2.386161
  21 H     1.0000    0     1.008  -14.339912   -0.724640   -1.900619
  22 H     1.0000    0     1.008  -13.928543    2.041300    1.864012
  23 H     1.0000    0     1.008   -9.684731    3.139785    3.627548
  24 H     1.0000    0     1.008   -4.368399    2.129940    2.598390
  25 H     1.0000    0     1.008   -1.402977   -2.858178   -4.096845
  26 H     1.0000    0     1.008    3.260431   -3.386765   -4.562035
  27 H     1.0000    0     1.008    7.913231   -1.788146   -2.017927
  28 H     1.0000    0     1.008    9.527426    2.245907    3.869439
  29 H     1.0000    0     1.008   13.010780   -0.976160    3.581992
  30 H     1.0000    0     1.008   11.304038   -2.647542    1.059071
  31 H     1.0000    0     1.008   11.439430    1.327709   -1.653991
  32 H     1.0000    0     1.008   13.140247    2.991135    0.877730
  33 H     1.0000    0     1.008   -0.362833    1.788895    2.588547
  34 H     1.0000    0     1.008  -10.516358   -2.496951   -4.044208

--------------------------------
INTERNAL COORDINATES (ANGSTROEM)
--------------------------------
 C      0   0   0     0.000000000000     0.00000000     0.00000000
 C      1   0   0     1.413609038749     0.00000000     0.00000000
 C      2   1   0     1.396718503890   121.54743060     0.00000000
 C      3   2   1     1.399092152427   116.78352675     0.00000000
 N      4   3   2     1.379458604029   132.82228489   179.97421641
 C      5   4   3     1.378456799539   107.74368310   180.03522515
 C      6   5   4     1.467352851747   123.21587972   179.95224404
 C      7   6   5     1.420888889312   118.33867385   181.44288528
 C      8   7   6     1.391676734186   122.04337442   179.67177724
 C      9   8   7     1.399365469264   117.02505356     0.07184214
 N     10   9   8     1.379737062911   133.12740181   180.11162254
 C     11  10   9     1.378964360172   107.59764878   180.05406764
 C     12  11  10     1.471272526418   123.77327218   180.05929326
 C     13  12  11     1.517850002554   121.06030924   325.53562296
 C     14  13  12     1.499348687241    60.40075826   110.03497821
 N     12  11  10     1.321693323975   112.23558851     0.00000000
 C     16  12  11     1.387049579258   105.64118524   359.95143503
 C     17  16  12     1.399554583987   130.20577135   180.15617819
 N      6   5   4     1.325448730677   111.89671029     0.05812201
 C     19   6   5     1.381873778480   105.93443895   359.93014756
 C      1   2   3     1.394983122361   121.43314000     0.00000000
 H      1   2   3     1.093227370299   119.20214076   179.99574843
 H      2   1   3     1.093215322782   119.27766581   180.02037282
 H      3   2   1     1.092248732553   121.49867352   180.01943752
 H      5   4   3     1.013741300928   125.68544313   359.74444029
 H      8   7   6     1.090609198218   118.27244863   359.78139016
 H      9   8   7     1.091866973161   121.09748934   180.10821935
 H     11  10   9     1.014684646973   125.91225722     0.00000000
 H     13  12  11     1.092137321077   111.64266570   180.73256321
 H     14  13  12     1.093739110069   116.89163524   219.08050985
 H     14  13  12     1.094406927290   117.76219127     1.17737332
 H     15  14  13     1.094484785898   118.63678295   252.41946504
 H     15  14  13     1.093750654181   118.45805650   106.37628665
 H     18  17  16     1.091858723274   118.93421757   359.83040721
 H     21   1   2     1.092788811862   121.49429077   180.01528018

---------------------------
INTERNAL COORDINATES (A.U.)
---------------------------
 C      0   0   0     0.000000000000     0.00000000     0.00000000
 C      1   0   0     2.671333943671     0.00000000     0.00000000
 C      2   1   0     2.639415458532   121.54743060     0.00000000
 C      3   2   1     2.643901004205   116.78352675     0.00000000
 N      4   3   2     2.606798974696   132.82228489   179.97421641
 C      5   4   3     2.604905838570   107.74368310   180.03522515
 C      6   5   4     2.772895031631   123.21587972   179.95224404
 C      7   6   5     2.685090867532   118.33867385   181.44288528
 C      8   7   6     2.629887894562   122.04337442   179.67177724
 C      9   8   7     2.644417498174   117.02505356     0.07184214
 N     10   9   8     2.607325185722   133.12740181   180.11162254
 C     11  10   9     2.605864989162   107.59764878   180.05406764
 C     12  11  10     2.780302143292   123.77327218   180.05929326
 C     13  12  11     2.868320817199   121.06030924   325.53562296
 C     14  13  12     2.833358398141    60.40075826   110.03497821
 N     12  11  10     2.497638415344   112.23558851     0.00000000
 C     16  12  11     2.621143838969   105.64118524   359.95143503
 C     17  16  12     2.644774873210   130.20577135   180.15617819
 N      6   5   4     2.504735105533   111.89671029     0.05812201
 C     19   6   5     2.611362992975   105.93443895   359.93014756
 C      1   2   3     2.636136062706   121.43314000     0.00000000
 H      1   2   3     2.065900331973   119.20214076   179.99574843
 H      2   1   3     2.065877565465   119.27766581   180.02037282
 H      3   2   1     2.064050974648   121.49867352   180.01943752
 H      5   4   3     1.915693429400   125.68544313   359.74444029
 H      8   7   6     2.060952703768   118.27244863   359.78139016
 H      9   8   7     2.063329553949   121.09748934   180.10821935
 H     11  10   9     1.917476095074   125.91225722     0.00000000
 H     13  12  11     2.063840437469   111.64266570   180.73256321
 H     14  13  12     2.066867379990   116.89163524   219.08050985
 H     14  13  12     2.068129371644   117.76219127     1.17737332
 H     15  14  13     2.068276503091   118.63678295   252.41946504
 H     15  14  13     2.066889195199   118.45805650   106.37628665
 H     18  17  16     2.063313963922   118.93421757   359.83040721
 H     21   1   2     2.065071576632   121.49429077   180.01528018

------------------------------------------------------------------------------
                   ___                                                        
                  /   \      - P O W E R E D   B Y -                         
                 /     \                                                     
                 |  |  |   _    _      __       _____    __    __             
                 |  |  |  | |  | |    /  \     |  _  \  |  |  /  |          
                  \  \/   | |  | |   /    \    | | | |  |  | /  /          
                 / \  \   | |__| |  /  /\  \   | |_| |  |  |/  /          
                |  |  |   |  __  | /  /__\  \  |    /   |      \           
                |  |  |   | |  | | |   __   |  |    \   |  |\   \          
                \     /   | |  | | |  |  |  |  | |\  \  |  | \   \       
                 \___/    |_|  |_| |__|  |__|  |_| \__\ |__|  \__/        
                                                                              
                      - O R C A' S   B I G   F R I E N D -                    
                                      &                                       
                       - I N T E G R A L  F E E D E R -                       
                                                                              
 v1 FN, 2020, v2 2021, v3 2022-2024                                           
------------------------------------------------------------------------------


----------------------
SHARK INTEGRAL PACKAGE
----------------------

Number of atoms                             ...     35
Number of basis functions                   ...    364
Number of shells                            ...    168
Maximum angular momentum                    ...      2
Integral batch strategy                     ... SHARK/LIBINT Hybrid
RI-J (if used) integral strategy            ... SPLIT-RIJ (Revised 2003 algorithm where possible)
Printlevel                                  ...      1
Contraction scheme used                     ... SEGMENTED contraction
Prescreening option                         ... SCHWARTZ
   Thresh                                   ... 2.500e-11
   Tcut                                     ... 2.500e-12
   Tpresel                                  ... 2.500e-12 
Coulomb Range Separation                    ... NOT USED
Exchange Range Separation                   ... NOT USED
Multipole approximations                    ... NOT USED
Finite Nucleus Model                        ... NOT USED
CABS basis                                  ... NOT available
Auxiliary Coulomb fitting basis             ... AVAILABLE
   # of basis functions in Aux-J            ...   1183
   # of shells in Aux-J                     ...    385
   Maximum angular momentum in Aux-J        ...      4
Auxiliary J/K fitting basis                 ... NOT available
Auxiliary Correlation fitting basis         ... NOT available
Auxiliary 'external' fitting basis          ... NOT available

Checking pre-screening integrals            ... done (  0.0 sec) Dimension = 168
   => SHARK Basis and OBASIS are compatible. Storing Pre-screening
Shell pair information
Shell pair cut-off parameter TPreSel        ...   2.5e-12
Total number of shell pairs                 ...     14196
Shell pairs after pre-screening             ...      9249
Total number of primitive shell pairs       ...     52318
Primitive shell pairs kept                  ...     22461
          la=0 lb=0:   2754 shell pairs
          la=1 lb=0:   3403 shell pairs
          la=1 lb=1:   1093 shell pairs
          la=2 lb=0:   1139 shell pairs
          la=2 lb=1:    729 shell pairs
          la=2 lb=2:    131 shell pairs

Checking whether 4 symmetric matrices of dimension 364 fit in memory
:Max Core in MB      =   2000.00
 MB in use           =     13.67
 MB left             =   1986.33
 MB needed           =      2.03
 Data fit in memory  = YES
Calculating RI/J V-Matrix + Cholesky decomp.... done (  0.1 sec)
Calculating Nuclear repulsion               ... done (  0.0 sec) ENN=   1447.072509600224 Eh

Diagonalization of the overlap matrix:
Smallest eigenvalue                        ... 2.374e-04
Time for diagonalization                   ...    0.010 sec
Threshold for overlap eigenvalues          ... 1.000e-07
Number of eigenvalues below threshold      ... 0
Time for construction of square roots      ...    0.007 sec
Total time needed                          ...    0.019 sec

-------------------
DFT GRID GENERATION
-------------------

General Integration Accuracy     IntAcc      ... 4.388
Radial Grid Type                 RadialGrid  ... OptM3 with GC (2021)
Angular Grid (max. ang.)         AngularGrid ... 4 (Lebedev-302)
Angular grid pruning method      GridPruning ... 4 (adaptive)
Weight generation scheme         WeightScheme... mBecke (2022)
Basis function cutoff            BFCut       ... 1.0000e-11
Integration weight cutoff        WCut        ... 1.0000e-14
Partially contracted basis set               ... off
Rotationally invariant grid construction     ... off
Angular grids for H and He will be reduced by one unit

Total number of grid points                  ...   170601
Total number of batches                      ...     2686
Average number of points per batch           ...       63
Average number of grid points per atom       ...     4874

--------------------
COSX GRID GENERATION
--------------------

GRIDX 1
-------
General Integration Accuracy     IntAcc      ... 3.816
Radial Grid Type                 RadialGrid  ... OptM3 with GC (2021)
Angular Grid (max. ang.)         AngularGrid ... 1 (Lebedev-50)
Angular grid pruning method      GridPruning ... 4 (adaptive)
Weight generation scheme         WeightScheme... mBecke (2022)
Basis function cutoff            BFCut       ... 1.0000e-11
Integration weight cutoff        WCut        ... 1.0000e-14
Partially contracted basis set               ... on
Rotationally invariant grid construction     ... off
Angular grids for H and He will be reduced by one unit

Total number of grid points                  ...    21676
Total number of batches                      ...      189
Average number of points per batch           ...      114
Average number of grid points per atom       ...      619
UseSFitting                                  ... on

GRIDX 2
-------
General Integration Accuracy     IntAcc      ... 4.020
Radial Grid Type                 RadialGrid  ... OptM3 with GC (2021)
Angular Grid (max. ang.)         AngularGrid ... 2 (Lebedev-110)
Angular grid pruning method      GridPruning ... 4 (adaptive)
Weight generation scheme         WeightScheme... mBecke (2022)
Basis function cutoff            BFCut       ... 1.0000e-11
Integration weight cutoff        WCut        ... 1.0000e-14
Partially contracted basis set               ... on
Rotationally invariant grid construction     ... off
Angular grids for H and He will be reduced by one unit

Total number of grid points                  ...    47671
Total number of batches                      ...      391
Average number of points per batch           ...      121
Average number of grid points per atom       ...     1362
UseSFitting                                  ... on

GRIDX 3
-------
General Integration Accuracy     IntAcc      ... 4.338
Radial Grid Type                 RadialGrid  ... OptM3 with GC (2021)
Angular Grid (max. ang.)         AngularGrid ... 3 (Lebedev-194)
Angular grid pruning method      GridPruning ... 4 (adaptive)
Weight generation scheme         WeightScheme... mBecke (2022)
Basis function cutoff            BFCut       ... 1.0000e-11
Integration weight cutoff        WCut        ... 1.0000e-14
Partially contracted basis set               ... on
Rotationally invariant grid construction     ... off
Angular grids for H and He will be reduced by one unit

Total number of grid points                  ...   104531
Total number of batches                      ...      836
Average number of points per batch           ...      125
Average number of grid points per atom       ...     2987
UseSFitting                                  ... on
Grids setup in   4.0 sec
Initializing property integral containers    ... done (  0.0 sec)

SHARK setup successfully completed in   4.3 seconds

Maximum memory used throughout the entire STARTUP-calculation: 70.5 MB
Occupation numbers will be reassigned to an Aufbau configuration
             **** ENERGY FILE WAS UPDATED (C:\Users\jabreumiranda\Radioprotection_Pipeline_Project\06_Quantum_DFT_ORCA\CHEMBL4952776_neutral_opt.en.tmp) ****
Finished Guess after   0.2 sec
Maximum memory used throughout the entire GUESS-calculation: 24.9 MB
--------------------
CPCM SOLVATION MODEL
--------------------
CPCM parameters:
  Epsilon                                         ...      80.1510
  Refrac                                          ...       1.3328
  Rsolv                                           ...       1.3000
  Surface type                                    ... GAUSSIAN VDW
  Discretization scheme                           ... Constant charge density
    Threshold for H atoms                         ...       5.0000 (charges/Ang^2)
    Threshold for non-H atoms                     ...       5.0000 (charges/Ang^2)
  Epsilon function type                           ...         CPCM
Solvent:                                          ... WATER
Radii:
  Scheme                                          ... Element-dependent radii
  Radius for C  used is    3.8550 Bohr (=   2.0400 Ang.)
  Radius for N  used is    3.5149 Bohr (=   1.8600 Ang.)
  Radius for H  used is    2.4944 Bohr (=   1.3200 Ang.)
Calculating surface                               ...        done! (  0.0s)
Cavity surface points                             ...         3191
Cavity Volume                                     ...    2196.9288
Cavity Surface-area                               ...    1133.8580
Calculating surface distance matrix               ...        done! (  0.1s)
Performing Cholesky decomposition & store         ...        done! (  0.4s)
Overall time for CPCM initialization              ...                 0.4s

----------------------------------------D-I-I-S--------------------------------------------
Iteration    Energy (Eh)           Delta-E    RMSDP     MaxDP     DIISErr   Damp  Time(sec)
-------------------------------------------------------------------------------------------
               ***  Starting incremental Fock matrix formation  ***
    1    -874.1295920424433916     0.00e+00  3.84e-05  9.69e-04  3.86e-03  0.700  20.2
                              *** Initializing SOSCF ***
---------------------------------------S-O-S-C-F--------------------------------------
Iteration    Energy (Eh)           Delta-E    RMSDP     MaxDP     MaxGrad    Time(sec)
--------------------------------------------------------------------------------------
    2    -874.1296667564049585    -7.47e-05  1.12e-04  2.72e-03  3.08e-03     8.1
               *** Restarting incremental Fock matrix formation ***
    3    -874.1298734076083292    -2.07e-04  2.77e-05  5.94e-04  2.99e-04    20.2
    4    -874.1298805042922595    -7.10e-06  1.56e-05  5.40e-04  1.23e-04    13.0
    5    -874.1298803373531427     1.67e-07  8.81e-06  3.46e-04  1.24e-04    12.7
    6    -874.1298815540797023    -1.22e-06  3.12e-06  1.54e-04  2.92e-05    11.7
    7    -874.1298815103530160     4.37e-08  1.89e-06  8.77e-05  3.18e-05     9.9
    8    -874.1298815972397733    -8.69e-08  3.77e-07  1.99e-05  2.54e-06     9.3
    9    -874.1298815995071436    -2.27e-09  2.22e-07  1.19e-05  3.65e-06     7.3
                 **** Energy Check signals convergence ****

               *****************************************************
               *                     SUCCESS                       *
               *           SCF CONVERGED AFTER   9 CYCLES          *
               *****************************************************

Recomputing exchange energy using gridx3       ... done (   31.022 sec)
Old exchange energy                            :    -23.882670051 Eh
New exchange energy                            :    -23.882680954 Eh
Exchange energy change after final integration :     -0.000010903 Eh
Total energy after final integration           :   -874.129892501 Eh
             **** ENERGY FILE WAS UPDATED (C:\Users\jabreumiranda\Radioprotection_Pipeline_Project\06_Quantum_DFT_ORCA\CHEMBL4952776_neutral_opt.en.tmp) ****

----------------
TOTAL SCF ENERGY
----------------

Total Energy       :       -874.12989250095779 Eh          -23786.28365 eV

Components:
Nuclear Repulsion  :       1447.07250960022407 Eh           39376.84487 eV
Electronic Energy  :      -2321.16862652922828 Eh          -63162.20943 eV
One Electron Energy:      -4056.48997419190846 Eh         -110382.70395 eV
Two Electron Energy:       1735.32134766268018 Eh           47220.49451 eV
CPCM Dielectric    :         -0.03376466899626 Eh              -0.91878 eV

Virial components:
Potential Energy   :      -1739.13405955442499 Eh          -47324.24368 eV
Kinetic Energy     :        865.00416705346720 Eh           23537.96003 eV
Virial Ratio       :          2.01054992079238

DFT components:
N(Alpha)           :       72.000033907846 electrons
N(Beta)            :       72.000033907846 electrons
N(Total)           :      144.000067815692 electrons
E(X)               :      -94.888461017899 Eh       
E(C)               :       -5.772292538378 Eh       
E(XC)              :     -100.660753556277 Eh       

CPCM Solvation Model Properties:
Surface-charge          :         -0.02849408726968
Corrected charge        :          0.00000000000000
Outlying charge corr.   :          0.00004237522344 Eh               0.00115 eV
Free-energy (cav+disp)  :  This term is not implemented in the current solvation scheme

---------------
SCF CONVERGENCE
---------------

  Last Energy change         ...    2.2674e-09  Tolerance :   1.0000e-08
  Last MAX-Density change    ...    1.1850e-05  Tolerance :   1.0000e-07
  Last RMS-Density change    ...    2.2215e-07  Tolerance :   5.0000e-09
  Last DIIS Error            ...    3.0754e-03  Tolerance :   5.0000e-07
  Last Orbital Gradient      ...    3.6485e-06  Tolerance :   1.0000e-05
  Last Orbital Rotation      ...    6.0152e-06  Tolerance :   1.0000e-05


Total SCF time: 0 days 0 hours 2 min 31 sec 
Finished LeanSCF after 151.4 sec

Maximum memory used throughout the entire LEANSCF-calculation: 98.5 MB

------------------------------------------------------------------------------
                         ORCA PROPERTY INTEGRAL CALCULATIONS
------------------------------------------------------------------------------

GBWName                                   ... C:\Users\jabreumiranda\Radioprotection_Pipeline_Project\06_Quantum_DFT_ORCA\CHEMBL4952776_neutral_opt.gbw
Number of atoms                           ...     35
Number of basis functions                 ...    364
Max core memory                           ...   2000 MB

Dipole integrals                          ... YES
Quadrupole integrals                      ...  NO
Linear momentum integrals                 ...  NO
Angular momentum integrals                ...  NO
Higher moments length integrals           ...  NO
Higher moments velocity integrals         ...  NO
Kinetic energy integrals                  ...  NO
GIAO right hand sides                     ...  NO
GIAO dipole derivative integrals          ...  NO
SOC integrals                             ...  NO
EPR diamagnetic integrals (GIAO)          ...  NO
EPR gauge integrals                       ...  NO
Field gradient integrals                  ...  NO (   0 nuclei)
Spin-dipole/Fermi contact integrals       ...  NO (   0 nuclei)
Contact density integrals                 ...  NO (   0 nuclei)
Nucleus-orbit integrals                   ...  NO (   0 nuclei)
Geometric perturbations                   ...  NO (  35 nuclei)

Choice of electric origin   ... Center of mass
Position of electric origin ... ( -0.5955, -0.0306, -0.0693) 
Choice of magnetic origin   ... GIAO
Position of magnetic origin ... (  0.0000,  0.0000,  0.0000) 

Calculating integrals                     ... Electric Dipole (Length)     done (  0.0 sec)

Property integrals calculated in   0.0 sec

Maximum memory used throughout the entire PROPINT-calculation: 24.0 MB


-------------------------------------------------------------------------------
                          DFT DISPERSION CORRECTION                            
                                                                               
                              DFTD3 V3.1  Rev 1                                
                          USING Becke-Johnson damping                          
-------------------------------------------------------------------------------
-------------------------   ----------------
Dispersion correction           -0.074579778
-------------------------   ----------------


-------------------------   --------------------
FINAL SINGLE POINT ENERGY      -874.204472278680
-------------------------   --------------------

------------------------------------------------------------------------------
                         ORCA SCF GRADIENT CALCULATION
------------------------------------------------------------------------------

Nuc. rep. gradient        (SHARK) ... done (  0.0 sec)
HCore & Overlap gradient  (SHARK) ... done (  0.9 sec)
Split-RIJ-J gradient      (SHARK) ... done (  5.0 sec)
COSX-gradient                     ... done ( 76.7 sec)
XC gradient                       ... done ( 12.9 sec)
CPCM gradient                     ... done (  4.6 sec)
Dispersion correction             ... done (  0.1 sec)

-------------------
DISPERSION GRADIENT
-------------------

   1   C   :   -0.000079833   -0.000088459   -0.000124696
   2   C   :   -0.000060205    0.000092749    0.000121575
   3   C   :   -0.000297919    0.000194027    0.000242700
   4   C   :    0.001333501   -0.000803351   -0.000999948
   5   N   :   -0.000477318   -0.000223225   -0.000334822
   6   C   :   -0.004140679    0.000229632    0.000038972
   7   C   :    0.000464212   -0.000030102   -0.000005374
   8   C   :    0.000262036   -0.000070954   -0.000082979
   9   C   :   -0.000025029   -0.000229112   -0.000325665
  10   C   :    0.000818066    0.000885370    0.001312707
  11   N   :   -0.000684714    0.000160680    0.000194492
  12   C   :   -0.003802237   -0.000658949   -0.001160985
  13   C   :    0.000337703    0.000165952    0.000258160
  14   C   :    0.000400575   -0.000084095    0.000175957
  15   C   :    0.000410449    0.000177907   -0.000003117
  16   N   :   -0.000146895   -0.000031015   -0.000048137
  17   C   :    0.003059657   -0.000290540   -0.000230323
  18   C   :    0.000052350    0.000029919    0.000053414
  19   N   :   -0.000291539    0.000109216    0.000132514
  20   C   :    0.002629951    0.000661755    0.001069199
  21   C   :   -0.000254218   -0.000145927   -0.000213342
  22   H   :   -0.000252331   -0.000059763   -0.000097319
  23   H   :   -0.000228920    0.000099315    0.000119146
  24   H   :   -0.000090935    0.000189877    0.000250661
  25   H   :    0.000039165    0.000197060    0.000266039
  26   H   :    0.000009032   -0.000188817   -0.000266920
  27   H   :    0.000027471   -0.000193219   -0.000272694
  28   H   :    0.000106060   -0.000191508   -0.000263434
  29   H   :    0.000069350    0.000152811    0.000227163
  30   H   :    0.000191591   -0.000110132    0.000139084
  31   H   :    0.000251398   -0.000246533    0.000055466
  32   H   :    0.000265161    0.000131601   -0.000202644
  33   H   :    0.000200072    0.000160607   -0.000046120
  34   H   :    0.000021885    0.000177601    0.000258974
  35   H   :   -0.000116914   -0.000170380   -0.000237702

Difference to translation invariance:
           :    0.0000000000   -0.0000000000    0.0000000000

Difference to rotation invariance:
           :    0.0000000000   -0.0000000000    0.0000000000

Norm of the Dispersion gradient    ...    0.0078687908
RMS gradient                       ...    0.0007679154
MAX gradient                       ...    0.0041406789

------------------
CARTESIAN GRADIENT
------------------

   1   C   :   -0.000027117   -0.000061943   -0.000082472
   2   C   :    0.000352005    0.000061729    0.000113780
   3   C   :    0.000077943    0.000288205    0.000363706
   4   C   :   -0.000327929   -0.000189360   -0.000202583
   5   N   :    0.000437408    0.000515562    0.000509629
   6   C   :    0.000123563    0.000163099    0.000327410
   7   C   :    0.000050344    0.000098995    0.000141115
   8   C   :   -0.000367282    0.000257124    0.000528258
   9   C   :    0.000244772   -0.000445024   -0.000656100
  10   C   :   -0.001340513    0.000220207    0.000295246
  11   N   :    0.000870225   -0.000114890   -0.000195459
  12   C   :    0.001836809   -0.000673479   -0.000800625
  13   C   :    0.000306462    0.000271581    0.000005696
  14   C   :   -0.001361191   -0.000331861    0.000262818
  15   C   :   -0.001380456    0.000374069   -0.000102987
  16   N   :   -0.000176788    0.000590126    0.000878368
  17   C   :   -0.000329451    0.000091850    0.000114289
  18   C   :   -0.000911573   -0.000140002   -0.000354896
  19   N   :    0.000045134   -0.000268220   -0.000560372
  20   C   :    0.000010405   -0.000173119   -0.000151035
  21   C   :   -0.000459846   -0.000103349   -0.000168141
  22   H   :    0.000058762   -0.000181691   -0.000233395
  23   H   :    0.000004357    0.000089666    0.000133294
  24   H   :   -0.000179454    0.000048897    0.000061778
  25   H   :    0.000171863   -0.000175765    0.000058247
  26   H   :    0.000559827   -0.000269784   -0.000355102
  27   H   :   -0.000243705   -0.000074830   -0.000119235
  28   H   :    0.000352779    0.000214742    0.000320759
  29   H   :   -0.000260143    0.000002557    0.000061561
  30   H   :    0.000326000   -0.000172502   -0.000093866
  31   H   :    0.000389861   -0.000353511    0.000234723
  32   H   :    0.000497237    0.000271858   -0.000266991
  33   H   :    0.000239216    0.000027383   -0.000179272
  34   H   :    0.000428891    0.000201553    0.000187766
  35   H   :   -0.000018416   -0.000059875   -0.000075910

Difference to translation invariance:
           :    0.0000000000    0.0000000000    0.0000000000

Difference to rotation invariance:
           :   -0.0001305626    0.0006108371    0.0009214594

Norm of the Cartesian gradient     ...    0.0044072133
RMS gradient                       ...    0.0004301000
MAX gradient                       ...    0.0018368094

-------
TIMINGS
-------

Total SCF gradient time     ....      100.134 sec

Densities                   ....       0.004 sec  (  0.0%)
One electron gradient       ....       0.870 sec  (  0.9%)
RI-J Coulomb gradient       ....       5.007 sec  (  5.0%)
COSX gradient               ....      76.718 sec  ( 76.6%)
XC gradient                 ....      12.882 sec  ( 12.9%)
CPCM gradient               ....       4.587 sec  (  4.6%)
   A-Matrix (El+Nuc)        ....       0.522 sec  (  0.5%)
   Potential                ....       4.065 sec  (  4.1%)

Maximum memory used throughout the entire SCFGRAD-calculation: 53.0 MB
------------------------------------------------------------------------------
                         ORCA GEOMETRY RELAXATION STEP
------------------------------------------------------------------------------

Reading the OPT-File                    .... done
Getting information on internals        .... done
Copying old internal coords+grads       .... done
Making the new internal coordinates     .... (2022 redundants) done
Validating the new internal coordinates .... (2022 redundants) done
Calculating the B-matrix                .... done
Calculating the G,G- and P matrices     .... done
Transforming gradient to internals      .... done
Projecting the internal gradient        .... done
Number of atoms                         ....  35
Number of internal coordinates          .... 206
Current Energy                          ....  -874.204472279 Eh
Current gradient norm                   ....     0.004407213 Eh/bohr
Maximum allowed component of the step   ....  0.300
Current trust radius                    ....  0.675
Updating the Hessian (BFGS)             .... done
Forming the augmented Hessian           .... done
Diagonalizing the augmented Hessian     .... done
Last element of RFO vector              ....  0.998562635
Lowest eigenvalues of augmented Hessian:
 -0.000080739  0.009861384  0.012743846  0.021018555  0.021959018
Length of the computed step             ....  0.053674385
The final length of the internal step   ....  0.053674385
Converting the step to Cartesian space:
 Initial RMS(Int)=    0.0037396716
Transforming coordinates:
 Iter   0:  RMS(Cart)=    0.0188301476 RMS(Int)=    0.0037352276
done
Storing new coordinates                 .... done
The predicted energy change is          ....    -0.000040486
Previously predicted energy change      ....    -0.000080411
Actually observed energy change         ....    -0.000110541
Ratio of predicted to observed change   ....     1.374694567
New trust radius                        ....     0.675000000

                                .--------------------.
          ----------------------|Geometry convergence|-------------------------
          Item                value                   Tolerance       Converged
          ---------------------------------------------------------------------
          Energy change      -0.0001105406            0.0000050000      NO
          RMS gradient        0.0002404277            0.0001000000      NO
          MAX gradient        0.0011615852            0.0003000000      NO
          RMS step            0.0037396716            0.0020000000      NO
          MAX step            0.0215960341            0.0040000000      NO
          -------------------------------------------------------------------------
          ........................................................
          Max(Bonds)      0.0022      Max(Angles)    0.34
          Max(Dihed)        1.24      Max(Improp)    0.00
          ---------------------------------------------------------------------

The optimization has not yet converged - more geometry cycles are needed


    ---------------------------------------------------------------------------
                         Redundant Internal Coordinates
                            (Angstroem and degrees)

        Definition                    Value    dE/dq     Step     New-Value
    ----------------------------------------------------------------------------
     1. B(C   1,C   0)                1.4136  0.000499 -0.0004    1.4132   
     2. B(C   2,C   1)                1.3967 -0.000047 -0.0001    1.3966   
     3. B(C   3,C   2)                1.3991  0.000171 -0.0002    1.3989   
     4. B(N   4,C   3)                1.3795  0.000452 -0.0005    1.3789   
     5. B(C   5,N   4)                1.3785  0.000074 -0.0002    1.3782   
     6. B(C   6,C   5)                1.4674 -0.000267  0.0007    1.4681   
     7. B(C   7,C   6)                1.4209  0.000291 -0.0001    1.4208   
     8. B(C   8,C   7)                1.3917 -0.000136 -0.0002    1.3915   
     9. B(C   9,C   8)                1.3994  0.000267 -0.0003    1.3991   
    10. B(N  10,C   9)                1.3797  0.001162 -0.0018    1.3779   
    11. B(C  11,N  10)                1.3790 -0.000363  0.0011    1.3801   
    12. B(C  12,C  11)                1.4713 -0.001147  0.0014    1.4727   
    13. B(C  13,C  12)                1.5179 -0.000317  0.0016    1.5194   
    14. B(C  14,C  13)                1.4993  0.000710 -0.0022    1.4971   
    15. B(C  14,C  12)                1.5178 -0.000368  0.0018    1.5196   
    16. B(N  15,C  11)                1.3217  0.000890 -0.0011    1.3206   
    17. B(C  16,N  15)                1.3870  0.000572 -0.0005    1.3866   
    18. B(C  16,C   9)                1.4215  0.000315  0.0005    1.4220   
    19. B(C  17,C  16)                1.3996  0.000147 -0.0005    1.3990   
    20. B(C  17,C   6)                1.4041 -0.000107  0.0002    1.4043   
    21. B(N  18,C   5)                1.3254  0.000455 -0.0008    1.3247   
    22. B(C  19,N  18)                1.3819  0.000155  0.0002    1.3820   
    23. B(C  19,C   3)                1.4238  0.000529  0.0003    1.4241   
    24. B(C  20,C  19)                1.4058  0.000305 -0.0005    1.4054   
    25. B(C  20,C   0)                1.3950 -0.000143  0.0000    1.3950   
    26. B(H  21,C   0)                1.0932  0.000067 -0.0001    1.0931   
    27. B(H  22,C   1)                1.0932  0.000087 -0.0002    1.0930   
    28. B(H  23,C   2)                1.0922  0.000063 -0.0000    1.0922   
    29. B(H  24,N   4)                1.0137  0.000023 -0.0000    1.0137   
    30. B(H  25,C   7)                1.0906  0.000002 -0.0001    1.0906   
    31. B(H  26,C   8)                1.0919  0.000037  0.0001    1.0919   
    32. B(H  27,N  10)                1.0147 -0.000038  0.0001    1.0148   
    33. B(H  28,C  12)                1.0921  0.000061 -0.0000    1.0921   
    34. B(H  29,C  13)                1.0937  0.000143 -0.0003    1.0935   
    35. B(H  30,C  13)                1.0944  0.000130 -0.0002    1.0942   
    36. B(H  31,C  14)                1.0945  0.000150 -0.0002    1.0942   
    37. B(H  32,C  14)                1.0938  0.000129 -0.0002    1.0935   
    38. B(H  33,C  17)                1.0919  0.000097 -0.0002    1.0917   
    39. B(H  34,C  20)                1.0928  0.000098 -0.0002    1.0926   
    40. A(C   1,C   0,H  21)          119.20  0.000283   -0.12    119.08   
    41. A(C  20,C   0,H  21)          119.36 -0.000324    0.11    119.47   
    42. A(C   1,C   0,C  20)          121.43  0.000041    0.02    121.45   
    43. A(C   0,C   1,H  22)          119.28  0.000027   -0.02    119.26   
    44. A(C   2,C   1,H  22)          119.17 -0.000253    0.08    119.25   
    45. A(C   0,C   1,C   2)          121.55  0.000225   -0.06    121.49   
    46. A(C   3,C   2,H  23)          121.72  0.000307   -0.12    121.60   
    47. A(C   1,C   2,H  23)          121.50 -0.000076    0.03    121.53   
    48. A(C   1,C   2,C   3)          116.78 -0.000231    0.08    116.86   
    49. A(C   2,C   3,C  19)          122.49  0.000067   -0.06    122.43   
    50. A(N   4,C   3,C  19)          104.69  0.000143   -0.03    104.66   
    51. A(C   2,C   3,N   4)          132.82 -0.000210    0.09    132.91   
    52. A(C   3,N   4,H  24)          125.69  0.000326   -0.09    125.59   
    53. A(C   5,N   4,H  24)          126.57 -0.000031    0.04    126.61   
    54. A(C   3,N   4,C   5)          107.74 -0.000294    0.05    107.80   
    55. A(C   6,C   5,N  18)          124.89 -0.000166    0.02    124.91   
    56. A(N   4,C   5,C   6)          123.22 -0.000184    0.01    123.22   
    57. A(N   4,C   5,N  18)          111.90  0.000350   -0.03    111.87   
    58. A(C   5,C   6,C   7)          118.34  0.000086   -0.04    118.29   
    59. A(C   7,C   6,C  17)          120.21  0.000054    0.03    120.24   
    60. A(C   5,C   6,C  17)          121.45 -0.000139    0.02    121.47   
    61. A(C   8,C   7,H  25)          119.68 -0.000850    0.34    120.02   
    62. A(C   6,C   7,H  25)          118.27  0.000625   -0.25    118.02   
    63. A(C   6,C   7,C   8)          122.04  0.000226   -0.09    121.95   
    64. A(C   7,C   8,H  26)          121.10 -0.000128    0.04    121.14   
    65. A(C   7,C   8,C   9)          117.03 -0.000319    0.13    117.15   
    66. A(C   9,C   8,H  26)          121.88  0.000448   -0.17    121.71   
    67. A(N  10,C   9,C  16)          104.71  0.000041    0.00    104.72   
    68. A(C   8,C   9,C  16)          122.16  0.000186   -0.10    122.06   
    69. A(C   8,C   9,N  10)          133.13 -0.000227    0.10    133.22   
    70. A(C  11,N  10,H  27)          126.49 -0.000444    0.17    126.66   
    71. A(C   9,N  10,H  27)          125.91  0.000556   -0.21    125.70   
    72. A(C   9,N  10,C  11)          107.60 -0.000112    0.04    107.64   
    73. A(N  10,C  11,C  12)          123.77  0.000021   -0.08    123.69   
    74. A(C  12,C  11,N  15)          123.99 -0.000268    0.15    124.14   
    75. A(N  10,C  11,N  15)          112.24  0.000247   -0.07    112.17   
    76. A(C  13,C  12,C  14)           59.20  0.000420   -0.17     59.03   
    77. A(C  14,C  12,H  28)          117.37  0.000097   -0.12    117.25   
    78. A(C  13,C  12,H  28)          117.41  0.000084   -0.08    117.34   
    79. A(C  11,C  12,H  28)          111.64  0.000152   -0.10    111.54   
    80. A(C  11,C  12,C  13)          121.06 -0.000352    0.26    121.32   
    81. A(C  11,C  12,C  14)          121.08 -0.000340    0.21    121.30   
    82. A(C  12,C  13,C  14)           60.40 -0.000226    0.09     60.49   
    83. A(C  14,C  13,H  30)          118.60  0.000233   -0.08    118.53   
    84. A(C  12,C  13,H  30)          117.76  0.000376   -0.29    117.48   
    85. A(C  14,C  13,H  29)          118.45  0.000082    0.14    118.59   
    86. A(C  12,C  13,H  29)          116.89  0.000094   -0.16    116.73   
    87. A(H  29,C  13,H  30)          114.33 -0.000388    0.19    114.52   
    88. A(C  12,C  14,H  32)          116.80  0.000165   -0.13    116.67   
    89. A(C  13,C  14,H  31)          118.64  0.000139   -0.02    118.62   
    90. A(C  12,C  14,H  31)          117.85  0.000333   -0.33    117.53   
    91. A(C  12,C  14,C  13)           60.40 -0.000195    0.08     60.48   
    92. A(H  31,C  14,H  32)          114.31 -0.000325    0.18    114.49   
    93. A(C  13,C  14,H  32)          118.46  0.000035    0.11    118.57   
    94. A(C  11,N  15,C  16)          105.64 -0.000121    0.06    105.70   
    95. A(N  15,C  16,C  17)          130.21  0.000123    0.00    130.21   
    96. A(C   9,C  16,C  17)          119.98 -0.000068    0.03    120.01   
    97. A(C   9,C  16,N  15)          109.81 -0.000055   -0.03    109.78   
    98. A(C   6,C  17,C  16)          118.58 -0.000079    0.00    118.59   
    99. A(C  16,C  17,H  33)          118.93 -0.000471    0.20    119.13   
   100. A(C   6,C  17,H  33)          122.48  0.000550   -0.20    122.28   
   101. A(C   5,N  18,C  19)          105.93 -0.000149    0.03    105.97   
   102. A(N  18,C  19,C  20)          130.58  0.000018    0.03    130.61   
   103. A(C   3,C  19,C  20)          119.69  0.000032   -0.00    119.68   
   104. A(C   3,C  19,N  18)          109.74 -0.000050   -0.03    109.71   
   105. A(C   0,C  20,C  19)          118.06 -0.000134    0.02    118.08   
   106. A(C  19,C  20,H  34)          120.45  0.000077   -0.01    120.43   
   107. A(C   0,C  20,H  34)          121.49  0.000057   -0.01    121.49   
   108. D(H  22,C   1,C   0,C  20)   -179.98  0.000003   -0.01   -179.99   
   109. D(C   2,C   1,C   0,C  20)     -0.00  0.000004   -0.02     -0.02   
   110. D(H  22,C   1,C   0,H  21)      0.02  0.000001   -0.00      0.01   
   111. D(C   2,C   1,C   0,H  21)    180.00  0.000002   -0.01    179.99   
   112. D(C   3,C   2,C   1,H  22)    179.97  0.000001   -0.01    179.97   
   113. D(H  23,C   2,C   1,H  22)     -0.00 -0.000000    0.00      0.00   
   114. D(H  23,C   2,C   1,C   0)   -179.98 -0.000001    0.01   -179.97   
   115. D(C   3,C   2,C   1,C   0)     -0.01  0.000000   -0.00     -0.01   
   116. D(C  19,C   3,C   2,H  23)   -179.99 -0.000005    0.02   -179.97   
   117. D(C  19,C   3,C   2,C   1)      0.04 -0.000006    0.03      0.06   
   118. D(N   4,C   3,C   2,H  23)     -0.05 -0.000001   -0.00     -0.05   
   119. D(N   4,C   3,C   2,C   1)    179.97 -0.000002    0.01    179.98   
   120. D(H  24,N   4,C   3,C   2)     -0.26  0.000062   -0.25     -0.51   
   121. D(H  24,N   4,C   3,C  19)    179.69  0.000066   -0.27    179.42   
   122. D(C   5,N   4,C   3,C   2)   -179.96 -0.000007    0.03   -179.94   
   123. D(C   5,N   4,C   3,C  19)     -0.02 -0.000003    0.01     -0.01   
   124. D(N  18,C   5,N   4,H  24)   -179.65 -0.000067    0.27   -179.37   
   125. D(N  18,C   5,N   4,C   3)      0.06  0.000003   -0.01      0.05   
   126. D(C   6,C   5,N   4,H  24)      0.25 -0.000065    0.26      0.51   
   127. D(C   6,C   5,N   4,C   3)    179.95  0.000005   -0.02    179.93   
   128. D(C  17,C   6,C   5,N   4)      1.36 -0.000162    1.24      2.60   
   129. D(C   7,C   6,C   5,N  18)      1.32 -0.000151    1.19      2.51   
   130. D(C  17,C   6,C   5,N  18)   -178.76 -0.000159    1.22   -177.54   
   131. D(C   7,C   6,C   5,N   4)   -178.56 -0.000154    1.20   -177.35   
   132. D(H  25,C   7,C   6,C  17)    179.86  0.000009   -0.05    179.81   
   133. D(H  25,C   7,C   6,C   5)     -0.22  0.000001   -0.02     -0.23   
   134. D(C   8,C   7,C   6,C  17)     -0.25  0.000008   -0.05     -0.30   
   135. D(C   8,C   7,C   6,C   5)    179.67 -0.000000   -0.02    179.65   
   136. D(C   9,C   8,C   7,H  25)    179.96 -0.000001    0.01    179.97   
   137. D(C   9,C   8,C   7,C   6)      0.07 -0.000001    0.01      0.08   
   138. D(H  26,C   8,C   7,C   6)   -179.89 -0.000001    0.01   -179.88   
   139. D(H  26,C   8,C   7,H  25)     -0.00 -0.000000    0.00      0.00   
   140. D(C  16,C   9,C   8,H  26)   -179.91 -0.000006    0.03   -179.88   
   141. D(C  16,C   9,C   8,C   7)      0.13 -0.000005    0.03      0.16   
   142. D(N  10,C   9,C   8,H  26)      0.07  0.000007   -0.02      0.06   
   143. D(N  10,C   9,C   8,C   7)   -179.89  0.000008   -0.02   -179.91   
   144. D(H  27,N  10,C   9,C  16)    180.00  0.000002   -0.00    179.99   
   145. D(H  27,N  10,C   9,C   8)      0.01 -0.000009    0.04      0.05   
   146. D(C  11,N  10,C   9,C  16)      0.04 -0.000001    0.01      0.05   
   147. D(C  11,N  10,C   9,C   8)   -179.95 -0.000013    0.05   -179.89   
   148. D(N  15,C  11,N  10,H  27)   -179.95 -0.000005    0.01   -179.94   
   149. D(N  15,C  11,N  10,C   9)      0.01 -0.000001   -0.00      0.01   
   150. D(C  12,C  11,N  10,H  27)      0.10 -0.000004    0.03      0.13   
   151. D(C  12,C  11,N  10,C   9)   -179.94 -0.000000    0.01   -179.93   
   152. D(H  28,C  12,C  11,N  10)   -179.27 -0.000012    0.28   -178.99   
   153. D(C  14,C  12,C  11,N  15)   -143.97  0.000080    0.37   -143.60   
   154. D(C  14,C  12,C  11,N  10)     35.97  0.000080    0.35     36.32   
   155. D(C  13,C  12,C  11,N  15)    145.60 -0.000148    0.38    145.98   
   156. D(C  13,C  12,C  11,N  10)    -34.46 -0.000148    0.36    -34.10   
   157. D(H  29,C  13,C  12,H  28)      1.96 -0.000248    0.44      2.40   
   158. D(H  29,C  13,C  12,C  14)    109.05 -0.000018    0.27    109.31   
   159. D(H  29,C  13,C  12,C  11)   -140.92 -0.000115    0.35   -140.57   
   160. D(C  14,C  13,C  12,H  28)   -107.09 -0.000230    0.17   -106.91   
   161. D(H  30,C  13,C  12,C  11)      1.18 -0.000139    0.03      1.20   
   162. D(C  14,C  13,C  12,C  11)    110.03 -0.000097    0.09    110.12   
   163. D(C  12,C  14,C  13,H  29)   -106.49  0.000011    0.22   -106.27   
   164. D(H  32,C  14,C  12,C  11)    140.91  0.000211   -0.37    140.55   
   165. D(H  31,C  14,C  12,H  28)   -143.99  0.000165    0.04   -143.95   
   166. D(H  31,C  14,C  12,C  13)    108.86 -0.000043    0.14    109.00   
   167. D(H  31,C  14,C  12,C  11)     -1.14  0.000074   -0.02     -1.16   
   168. D(C  13,C  14,C  12,H  28)    107.15  0.000208   -0.10    107.05   
   169. D(C  12,C  14,C  13,H  30)    107.48  0.000269   -0.28    107.20   
   170. D(C  13,C  14,C  12,C  11)   -110.00  0.000117   -0.16   -110.15   
   171. D(H  32,C  14,C  13,C  12)    106.38  0.000108   -0.17    106.20   
   172. D(H  31,C  14,C  13,H  30)     -0.10 -0.000001    0.07     -0.02   
   173. D(H  31,C  14,C  13,H  29)    145.93 -0.000259    0.57    146.51   
   174. D(H  31,C  14,C  13,C  12)   -107.58 -0.000270    0.35   -107.23   
   175. D(C  16,N  15,C  11,C  12)    179.90  0.000002   -0.02    179.87   
   176. D(C  16,N  15,C  11,N  10)     -0.05  0.000002   -0.01     -0.06   
   177. D(C  17,C  16,N  15,C  11)   -179.84  0.000005   -0.01   -179.85   
   178. D(C   9,C  16,N  15,C  11)      0.07 -0.000003    0.02      0.09   
   179. D(C  17,C  16,C   9,N  10)    179.86 -0.000004    0.01    179.86   
   180. D(C  17,C  16,C   9,C   8)     -0.16  0.000006   -0.03     -0.19   
   181. D(N  15,C  16,C   9,N  10)     -0.07  0.000003   -0.02     -0.08   
   182. D(N  15,C  16,C   9,C   8)    179.92  0.000012   -0.05    179.86   
   183. D(H  33,C  17,C  16,N  15)     -0.17  0.000024   -0.12     -0.29   
   184. D(H  33,C  17,C  16,C   9)    179.92  0.000032   -0.15    179.77   
   185. D(C   6,C  17,C  16,N  15)    179.89 -0.000008    0.02    179.91   
   186. D(C   6,C  17,C  16,C   9)     -0.02  0.000001   -0.01     -0.03   
   187. D(H  33,C  17,C   6,C   7)   -179.72 -0.000040    0.20   -179.53   
   188. D(H  33,C  17,C   6,C   5)      0.36 -0.000032    0.16      0.52   
   189. D(C  16,C  17,C   6,C   7)      0.22 -0.000008    0.05      0.27   
   190. D(C  16,C  17,C   6,C   5)   -179.70  0.000000    0.02   -179.69   
   191. D(C  19,N  18,C   5,C   6)   -179.96 -0.000004    0.02   -179.95   
   192. D(C  19,N  18,C   5,N   4)     -0.07 -0.000002    0.00     -0.07   
   193. D(C  20,C  19,N  18,C   5)   -179.96 -0.000004    0.02   -179.94   
   194. D(C   3,C  19,N  18,C   5)      0.06 -0.000000    0.01      0.06   
   195. D(C  20,C  19,C   3,N   4)    179.99  0.000005   -0.02    179.97   
   196. D(C  20,C  19,C   3,C   2)     -0.06  0.000008   -0.04     -0.10   
   197. D(N  18,C  19,C   3,N   4)     -0.02  0.000002   -0.01     -0.03   
   198. D(N  18,C  19,C   3,C   2)    179.93  0.000005   -0.03    179.90   
   199. D(H  34,C  20,C  19,N  18)      0.03 -0.000000    0.01      0.03   
   200. D(H  34,C  20,C  19,C   3)   -179.99 -0.000004    0.02   -179.97   
   201. D(C   0,C  20,C  19,N  18)   -179.94 -0.000000    0.01   -179.94   
   202. D(C   0,C  20,C  19,C   3)      0.05 -0.000004    0.02      0.07   
   203. D(H  34,C  20,C   0,H  21)      0.02  0.000000   -0.00      0.02   
   204. D(H  34,C  20,C   0,C   1)   -179.98 -0.000001    0.01   -179.98   
   205. D(C  19,C  20,C   0,H  21)    179.98  0.000000   -0.00    179.98   
   206. D(C  19,C  20,C   0,C   1)     -0.02 -0.000002    0.01     -0.01   
    ----------------------------------------------------------------------------

Geometry step timings:
Preparation and reading OPT file:      0.000 s ( 0.000 %)
Internal coordinates            :      0.000 s ( 0.000 %)
B/P matrices and projection     :      0.004 s (33.333 %)
Hessian update/contruction      :      0.002 s (16.667 %)
Making the step                 :      0.003 s (25.000 %)
Converting the step to Cartesian:      0.000 s ( 0.000 %)
Storing new data                :      0.000 s ( 0.000 %)
Checking convergence            :      0.000 s ( 0.000 %)
Final printing                  :      0.003 s (25.000 %)
Total time                      :      0.012 s

Time for energy+gradient        :    256.411 s
Time for complete geometry iter :    256.518 s

         *************************************************************
         *                GEOMETRY OPTIMIZATION CYCLE   5            *
         *************************************************************
---------------------------------
CARTESIAN COORDINATES (ANGSTROEM)
---------------------------------
  C     -6.592782   -0.158056   -0.614926
  C     -6.469022    0.692057    0.507224
  C     -5.219583    1.032143    1.030463
  C     -4.098455    0.491788    0.391782
  N     -2.743193    0.602744    0.620679
  C     -2.092091   -0.152437   -0.330763
  C     -0.630583   -0.272180   -0.400652
  C     -0.067088   -1.032985   -1.460049
  C      1.308070   -1.190475   -1.603165
  C      2.124443   -0.566476   -0.653671
  N      3.489780   -0.501720   -0.479702
  C      3.732435    0.262790    0.643358
  C      5.081685    0.561263    1.152593
  C      6.211389   -0.448027    1.034973
  C      6.247502    0.798989    0.207335
  N      2.616753    0.693832    1.203319
  C      1.586951    0.196440    0.419297
  C      0.201693    0.344634    0.547427
  N     -2.941465   -0.742048   -1.158818
  C     -4.203679   -0.365436   -0.740508
  C     -5.471868   -0.694222   -1.249046
  H     -7.590327   -0.398631   -0.991743
  H     -7.371474    1.092142    0.976521
  H     -5.123066    1.688749    1.897930
  H     -2.311962    1.152377    1.355238
  H     -0.746923   -1.498908   -2.174231
  H      1.726903   -1.776668   -2.423695
  H      4.184108   -0.941246   -1.075116
  H      5.042658    1.166745    2.060680
  H      6.889385   -0.529114    1.889020
  H      5.990021   -1.398040    0.539207
  H      6.051928    0.721115   -0.866472
  H      6.950193    1.589887    0.483856
  H     -0.195571    0.930231    1.378738
  H     -5.566864   -1.351256   -2.116882

----------------------------
CARTESIAN COORDINATES (A.U.)
----------------------------
  NO LB      ZA    FRAG     MASS         X           Y           Z
   0 C     6.0000    0    12.011  -12.458553   -0.298682   -1.162041
   1 C     6.0000    0    12.011  -12.224680    1.307798    0.958515
   2 C     6.0000    0    12.011   -9.863582    1.950467    1.947293
   3 C     6.0000    0    12.011   -7.744957    0.929344    0.740362
   4 N     7.0000    0    14.007   -5.183883    1.139022    1.172913
   5 C     6.0000    0    12.011   -3.953479   -0.288065   -0.625052
   6 C     6.0000    0    12.011   -1.191628   -0.514346   -0.757123
   7 C     6.0000    0    12.011   -0.126778   -1.952060   -2.759092
   8 C     6.0000    0    12.011    2.471893   -2.249672   -3.029543
   9 C     6.0000    0    12.011    4.014615   -1.070485   -1.235259
  10 N     7.0000    0    14.007    6.594729   -0.948113   -0.906506
  11 C     6.0000    0    12.011    7.053281    0.496602    1.215771
  12 C     6.0000    0    12.011    9.602992    1.060634    2.178084
  13 C     6.0000    0    12.011   11.737824   -0.846649    1.955816
  14 C     6.0000    0    12.011   11.806068    1.509870    0.391806
  15 N     7.0000    0    14.007    4.944947    1.311152    2.273944
  16 C     6.0000    0    12.011    2.998902    0.371217    0.792357
  17 C     6.0000    0    12.011    0.381144    0.651264    1.034487
  18 N     7.0000    0    14.007   -5.558564   -1.402267   -2.189848
  19 C     6.0000    0    12.011   -7.943802   -0.690575   -1.399357
  20 C     6.0000    0    12.011  -10.340333   -1.311890   -2.360354
  21 H     1.0000    0     1.008  -14.343639   -0.753303   -1.874124
  22 H     1.0000    0     1.008  -13.930066    2.063848    1.845356
  23 H     1.0000    0     1.008   -9.681192    3.191274    3.586567
  24 H     1.0000    0     1.008   -4.368975    2.177678    2.561030
  25 H     1.0000    0     1.008   -1.411480   -2.832526   -4.108701
  26 H     1.0000    0     1.008    3.263373   -3.357415   -4.580121
  27 H     1.0000    0     1.008    7.906818   -1.778697   -2.031675
  28 H     1.0000    0     1.008    9.529242    2.204828    3.894121
  29 H     1.0000    0     1.008   13.019051   -0.999881    3.569731
  30 H     1.0000    0     1.008   11.319499   -2.641913    1.018954
  31 H     1.0000    0     1.008   11.436486    1.362711   -1.637395
  32 H     1.0000    0     1.008   13.133962    3.004451    0.914354
  33 H     1.0000    0     1.008   -0.369575    1.757882    2.605437
  34 H     1.0000    0     1.008  -10.519849   -2.553503   -4.000327

--------------------------------
INTERNAL COORDINATES (ANGSTROEM)
--------------------------------
 C      0   0   0     0.000000000000     0.00000000     0.00000000
 C      1   0   0     1.413233383912     0.00000000     0.00000000
 C      2   1   0     1.396615570324   121.48694790     0.00000000
 C      3   2   1     1.398865342832   116.86448874     0.00000000
 N      4   3   2     1.378927063144   132.90849875   179.97953379
 C      5   4   3     1.378214401489   107.79617510   180.06314995
 C      6   5   4     1.468070001769   123.22101092   179.93106130
 C      7   6   5     1.420799684262   118.29450078   182.64748530
 C      8   7   6     1.391525888446   121.95344295   179.65222522
 C      9   8   7     1.399063817239   117.15325364     0.08407841
 N     10   9   8     1.377898454104   133.22312878   180.08911537
 C     11  10   9     1.380080448256   107.63795079   180.10863716
 C     12  11  10     1.472711658102   123.69287393   180.07347524
 C     13  12  11     1.519451835570   121.31724983   325.89845964
 C     14  13  12     1.497110019179    60.49132989   110.12217032
 N     12  11  10     1.320643762317   112.16704900     0.00000000
 C     16  12  11     1.386572697067   105.69995279   359.94221913
 C     17  16  12     1.399042007455   130.21039107   180.14560716
 N      6   5   4     1.324670548564   111.87034695     0.05172956
 C     19   6   5     1.382028214666   105.96861298   359.93051949
 C      1   2   3     1.395001663451   121.45120128     0.00000000
 H      1   2   3     1.093143828304   119.07854723   179.98689204
 H      2   1   3     1.093035319284   119.26148625   180.02513483
 H      3   2   1     1.092220552427   121.53353960   180.02565868
 H      5   4   3     1.013723223967   125.59160228   359.49500355
 H      8   7   6     1.090557321895   118.02371929   359.76627428
 H      9   8   7     1.091930547153   121.13812903   180.11716547
 H     11  10   9     1.014786340678   125.69980609     0.05492894
 H     13  12  11     1.092132503065   111.53879002   181.01354355
 H     14  13  12     1.093457989893   116.73083507   219.43346193
 H     14  13  12     1.094217475104   117.47522174     1.20396871
 H     15  14  13     1.094246158008   118.61417814   252.77474231
 H     15  14  13     1.093507582148   118.56464587   106.20295244
 H     18  17  16     1.091704878074   119.13479347   359.70702823
 H     21   1   2     1.092637935575   121.48679443   180.02203960

---------------------------
INTERNAL COORDINATES (A.U.)
---------------------------
 C      0   0   0     0.000000000000     0.00000000     0.00000000
 C      1   0   0     2.670624058909     0.00000000     0.00000000
 C      2   1   0     2.639220942282   121.48694790     0.00000000
 C      3   2   1     2.643472396186   116.86448874     0.00000000
 N      4   3   2     2.605794507995   132.90849875   179.97953379
 C      5   4   3     2.604447772640   107.79617510   180.06314995
 C      6   5   4     2.774250248768   123.22101092   179.93106130
 C      7   6   5     2.684922294417   118.29450078   182.64748530
 C      8   7   6     2.629602837424   121.95344295   179.65222522
 C      9   8   7     2.643847458460   117.15325364     0.08407841
 N     10   9   8     2.603850718610   133.22312878   180.08911537
 C     11  10   9     2.607974089983   107.63795079   180.10863716
 C     12  11  10     2.783021708045   123.69287393   180.07347524
 C     13  12  11     2.871347842912   121.31724983   325.89845964
 C     14  13  12     2.829127928598    60.49132989   110.12217032
 N     12  11  10     2.495655031250   112.16704900     0.00000000
 C     16  12  11     2.620242662228   105.69995279   359.94221913
 C     17  16  12     2.643806243941   130.21039107   180.14560716
 N      6   5   4     2.503264554458   111.87034695     0.05172956
 C     19   6   5     2.611654835071   105.96861298   359.93051949
 C      1   2   3     2.636171100287   121.45120128     0.00000000
 H      1   2   3     2.065742460480   119.07854723   179.98689204
 H      2   1   3     2.065537408150   119.26148625   180.02513483
 H      3   2   1     2.063997721927   121.53353960   180.02565868
 H      5   4   3     1.915659268894   125.59160228   359.49500355
 H      8   7   6     2.060854671723   118.02371929   359.76627428
 H      9   8   7     2.063449691382   121.13812903   180.11716547
 H     11  10   9     1.917668268325   125.69980609     0.05492894
 H     13  12  11     2.063831332747   111.53879002   181.01354355
 H     14  13  12     2.066336139846   116.73083507   219.43346193
 H     14  13  12     2.067771358898   117.47522174     1.20396871
 H     15  14  13     2.067825561732   118.61417814   252.77474231
 H     15  14  13     2.066429855626   118.56464587   106.20295244
 H     18  17  16     2.063023238626   119.13479347   359.70702823
 H     21   1   2     2.064786461769   121.48679443   180.02203960

------------------------------------------------------------------------------
                   ___                                                        
                  /   \      - P O W E R E D   B Y -                         
                 /     \                                                     
                 |  |  |   _    _      __       _____    __    __             
                 |  |  |  | |  | |    /  \     |  _  \  |  |  /  |          
                  \  \/   | |  | |   /    \    | | | |  |  | /  /          
                 / \  \   | |__| |  /  /\  \   | |_| |  |  |/  /          
                |  |  |   |  __  | /  /__\  \  |    /   |      \           
                |  |  |   | |  | | |   __   |  |    \   |  |\   \          
                \     /   | |  | | |  |  |  |  | |\  \  |  | \   \       
                 \___/    |_|  |_| |__|  |__|  |_| \__\ |__|  \__/        
                                                                              
                      - O R C A' S   B I G   F R I E N D -                    
                                      &                                       
                       - I N T E G R A L  F E E D E R -                       
                                                                              
 v1 FN, 2020, v2 2021, v3 2022-2024                                           
------------------------------------------------------------------------------


----------------------
SHARK INTEGRAL PACKAGE
----------------------

Number of atoms                             ...     35
Number of basis functions                   ...    364
Number of shells                            ...    168
Maximum angular momentum                    ...      2
Integral batch strategy                     ... SHARK/LIBINT Hybrid
RI-J (if used) integral strategy            ... SPLIT-RIJ (Revised 2003 algorithm where possible)
Printlevel                                  ...      1
Contraction scheme used                     ... SEGMENTED contraction
Prescreening option                         ... SCHWARTZ
   Thresh                                   ... 2.500e-11
   Tcut                                     ... 2.500e-12
   Tpresel                                  ... 2.500e-12 
Coulomb Range Separation                    ... NOT USED
Exchange Range Separation                   ... NOT USED
Multipole approximations                    ... NOT USED
Finite Nucleus Model                        ... NOT USED
CABS basis                                  ... NOT available
Auxiliary Coulomb fitting basis             ... AVAILABLE
   # of basis functions in Aux-J            ...   1183
   # of shells in Aux-J                     ...    385
   Maximum angular momentum in Aux-J        ...      4
Auxiliary J/K fitting basis                 ... NOT available
Auxiliary Correlation fitting basis         ... NOT available
Auxiliary 'external' fitting basis          ... NOT available

Checking pre-screening integrals            ... done (  0.0 sec) Dimension = 168
   => SHARK Basis and OBASIS are compatible. Storing Pre-screening
Shell pair information
Shell pair cut-off parameter TPreSel        ...   2.5e-12
Total number of shell pairs                 ...     14196
Shell pairs after pre-screening             ...      9244
Total number of primitive shell pairs       ...     52318
Primitive shell pairs kept                  ...     22455
          la=0 lb=0:   2750 shell pairs
          la=1 lb=0:   3403 shell pairs
          la=1 lb=1:   1092 shell pairs
          la=2 lb=0:   1139 shell pairs
          la=2 lb=1:    729 shell pairs
          la=2 lb=2:    131 shell pairs

Checking whether 4 symmetric matrices of dimension 364 fit in memory
:Max Core in MB      =   2000.00
 MB in use           =     13.67
 MB left             =   1986.33
 MB needed           =      2.03
 Data fit in memory  = YES
Calculating RI/J V-Matrix + Cholesky decomp.... done (  0.1 sec)
Calculating Nuclear repulsion               ... done (  0.0 sec) ENN=   1446.968496602423 Eh

Diagonalization of the overlap matrix:
Smallest eigenvalue                        ... 2.370e-04
Time for diagonalization                   ...    0.012 sec
Threshold for overlap eigenvalues          ... 1.000e-07
Number of eigenvalues below threshold      ... 0
Time for construction of square roots      ...    0.006 sec
Total time needed                          ...    0.020 sec

-------------------
DFT GRID GENERATION
-------------------

General Integration Accuracy     IntAcc      ... 4.388
Radial Grid Type                 RadialGrid  ... OptM3 with GC (2021)
Angular Grid (max. ang.)         AngularGrid ... 4 (Lebedev-302)
Angular grid pruning method      GridPruning ... 4 (adaptive)
Weight generation scheme         WeightScheme... mBecke (2022)
Basis function cutoff            BFCut       ... 1.0000e-11
Integration weight cutoff        WCut        ... 1.0000e-14
Partially contracted basis set               ... off
Rotationally invariant grid construction     ... off
Angular grids for H and He will be reduced by one unit

Total number of grid points                  ...   170600
Total number of batches                      ...     2686
Average number of points per batch           ...       63
Average number of grid points per atom       ...     4874

--------------------
COSX GRID GENERATION
--------------------

GRIDX 1
-------
General Integration Accuracy     IntAcc      ... 3.816
Radial Grid Type                 RadialGrid  ... OptM3 with GC (2021)
Angular Grid (max. ang.)         AngularGrid ... 1 (Lebedev-50)
Angular grid pruning method      GridPruning ... 4 (adaptive)
Weight generation scheme         WeightScheme... mBecke (2022)
Basis function cutoff            BFCut       ... 1.0000e-11
Integration weight cutoff        WCut        ... 1.0000e-14
Partially contracted basis set               ... on
Rotationally invariant grid construction     ... off
Angular grids for H and He will be reduced by one unit

Total number of grid points                  ...    21672
Total number of batches                      ...      190
Average number of points per batch           ...      114
Average number of grid points per atom       ...      619
UseSFitting                                  ... on

GRIDX 2
-------
General Integration Accuracy     IntAcc      ... 4.020
Radial Grid Type                 RadialGrid  ... OptM3 with GC (2021)
Angular Grid (max. ang.)         AngularGrid ... 2 (Lebedev-110)
Angular grid pruning method      GridPruning ... 4 (adaptive)
Weight generation scheme         WeightScheme... mBecke (2022)
Basis function cutoff            BFCut       ... 1.0000e-11
Integration weight cutoff        WCut        ... 1.0000e-14
Partially contracted basis set               ... on
Rotationally invariant grid construction     ... off
Angular grids for H and He will be reduced by one unit

Total number of grid points                  ...    47666
Total number of batches                      ...      392
Average number of points per batch           ...      121
Average number of grid points per atom       ...     1362
UseSFitting                                  ... on

GRIDX 3
-------
General Integration Accuracy     IntAcc      ... 4.338
Radial Grid Type                 RadialGrid  ... OptM3 with GC (2021)
Angular Grid (max. ang.)         AngularGrid ... 3 (Lebedev-194)
Angular grid pruning method      GridPruning ... 4 (adaptive)
Weight generation scheme         WeightScheme... mBecke (2022)
Basis function cutoff            BFCut       ... 1.0000e-11
Integration weight cutoff        WCut        ... 1.0000e-14
Partially contracted basis set               ... on
Rotationally invariant grid construction     ... off
Angular grids for H and He will be reduced by one unit

Total number of grid points                  ...   104538
Total number of batches                      ...      836
Average number of points per batch           ...      125
Average number of grid points per atom       ...     2987
UseSFitting                                  ... on
Grids setup in   3.9 sec
Initializing property integral containers    ... done (  0.0 sec)

SHARK setup successfully completed in   4.2 seconds

Maximum memory used throughout the entire STARTUP-calculation: 70.5 MB
Occupation numbers will be reassigned to an Aufbau configuration
             **** ENERGY FILE WAS UPDATED (C:\Users\jabreumiranda\Radioprotection_Pipeline_Project\06_Quantum_DFT_ORCA\CHEMBL4952776_neutral_opt.en.tmp) ****
Finished Guess after   0.2 sec
Maximum memory used throughout the entire GUESS-calculation: 24.9 MB
--------------------
CPCM SOLVATION MODEL
--------------------
CPCM parameters:
  Epsilon                                         ...      80.1510
  Refrac                                          ...       1.3328
  Rsolv                                           ...       1.3000
  Surface type                                    ... GAUSSIAN VDW
  Discretization scheme                           ... Constant charge density
    Threshold for H atoms                         ...       5.0000 (charges/Ang^2)
    Threshold for non-H atoms                     ...       5.0000 (charges/Ang^2)
  Epsilon function type                           ...         CPCM
Solvent:                                          ... WATER
Radii:
  Scheme                                          ... Element-dependent radii
  Radius for C  used is    3.8550 Bohr (=   2.0400 Ang.)
  Radius for N  used is    3.5149 Bohr (=   1.8600 Ang.)
  Radius for H  used is    2.4944 Bohr (=   1.3200 Ang.)
Calculating surface                               ...        done! (  0.0s)
Cavity surface points                             ...         3189
Cavity Volume                                     ...    2197.5999
Cavity Surface-area                               ...    1134.7374
Calculating surface distance matrix               ...        done! (  0.1s)
Performing Cholesky decomposition & store         ...        done! (  0.4s)
Overall time for CPCM initialization              ...                 0.5s

----------------------------------------D-I-I-S--------------------------------------------
Iteration    Energy (Eh)           Delta-E    RMSDP     MaxDP     DIISErr   Damp  Time(sec)
-------------------------------------------------------------------------------------------
               ***  Starting incremental Fock matrix formation  ***
    1    -874.1290967802974592     0.00e+00  5.74e-05  1.52e-03  7.13e-03  0.700  20.4
    2    -874.1293113585138599    -2.15e-04  5.11e-05  1.46e-03  5.69e-03  0.700   8.4
                               ***Turning on AO-DIIS***
    3    -874.1294831067853011    -1.72e-04  4.14e-05  1.25e-03  4.30e-03  0.700   8.3
                              *** Initializing SOSCF ***
---------------------------------------S-O-S-C-F--------------------------------------
Iteration    Energy (Eh)           Delta-E    RMSDP     MaxDP     MaxGrad    Time(sec)
--------------------------------------------------------------------------------------
    4    -874.1296108456022012    -1.28e-04  1.04e-04  3.19e-03  3.13e-03     8.1
               *** Restarting incremental Fock matrix formation ***
    5    -874.1299322251634294    -3.21e-04  1.01e-05  2.43e-04  1.09e-04    20.1
    6    -874.1299331858181176    -9.61e-07  2.83e-06  1.14e-04  1.72e-05    11.8
    7    -874.1299331885593347    -2.74e-09  1.16e-06  7.20e-05  2.11e-05    10.0
                 **** Energy Check signals convergence ****

               *****************************************************
               *                     SUCCESS                       *
               *           SCF CONVERGED AFTER   7 CYCLES          *
               *****************************************************

Recomputing exchange energy using gridx3       ... done (   30.952 sec)
Old exchange energy                            :    -23.883061699 Eh
New exchange energy                            :    -23.883078453 Eh
Exchange energy change after final integration :     -0.000016754 Eh
Total energy after final integration           :   -874.129949976 Eh
             **** ENERGY FILE WAS UPDATED (C:\Users\jabreumiranda\Radioprotection_Pipeline_Project\06_Quantum_DFT_ORCA\CHEMBL4952776_neutral_opt.en.tmp) ****

----------------
TOTAL SCF ENERGY
----------------

Total Energy       :       -874.12994997587168 Eh          -23786.28521 eV

Components:
Nuclear Repulsion  :       1446.96849660242287 Eh           39374.01453 eV
Electronic Energy  :      -2321.06463146719398 Eh          -63159.37958 eV
One Electron Energy:      -4056.27770499840744 Eh         -110376.92781 eV
Two Electron Energy:       1735.21307353121369 Eh           47217.54822 eV
CPCM Dielectric    :         -0.03379835691383 Eh              -0.91970 eV

Virial components:
Potential Energy   :      -1739.14130648702439 Eh          -47324.44088 eV
Kinetic Energy     :        865.01135651115271 Eh           23538.15567 eV
Virial Ratio       :          2.01054158814920

DFT components:
N(Alpha)           :       72.000035044263 electrons
N(Beta)            :       72.000035044263 electrons
N(Total)           :      144.000070088525 electrons
E(X)               :      -94.889839432619 Eh       
E(C)               :       -5.772360650081 Eh       
E(XC)              :     -100.662200082700 Eh       

CPCM Solvation Model Properties:
Surface-charge          :         -0.02849547048430
Corrected charge        :         -0.00000000000000
Outlying charge corr.   :          0.00004237606697 Eh               0.00115 eV
Free-energy (cav+disp)  :  This term is not implemented in the current solvation scheme

---------------
SCF CONVERGENCE
---------------

  Last Energy change         ...    2.7412e-09  Tolerance :   1.0000e-08
  Last MAX-Density change    ...    7.1974e-05  Tolerance :   1.0000e-07
  Last RMS-Density change    ...    1.1561e-06  Tolerance :   5.0000e-09
  Last DIIS Error            ...    3.1266e-03  Tolerance :   5.0000e-07
  Last Orbital Gradient      ...    2.1118e-05  Tolerance :   1.0000e-05
  Last Orbital Rotation      ...    2.8492e-05  Tolerance :   1.0000e-05


Total SCF time: 0 days 0 hours 2 min 7 sec 
Finished LeanSCF after 127.5 sec

Maximum memory used throughout the entire LEANSCF-calculation: 98.5 MB

------------------------------------------------------------------------------
                         ORCA PROPERTY INTEGRAL CALCULATIONS
------------------------------------------------------------------------------

GBWName                                   ... C:\Users\jabreumiranda\Radioprotection_Pipeline_Project\06_Quantum_DFT_ORCA\CHEMBL4952776_neutral_opt.gbw
Number of atoms                           ...     35
Number of basis functions                 ...    364
Max core memory                           ...   2000 MB

Dipole integrals                          ... YES
Quadrupole integrals                      ...  NO
Linear momentum integrals                 ...  NO
Angular momentum integrals                ...  NO
Higher moments length integrals           ...  NO
Higher moments velocity integrals         ...  NO
Kinetic energy integrals                  ...  NO
GIAO right hand sides                     ...  NO
GIAO dipole derivative integrals          ...  NO
SOC integrals                             ...  NO
EPR diamagnetic integrals (GIAO)          ...  NO
EPR gauge integrals                       ...  NO
Field gradient integrals                  ...  NO (   0 nuclei)
Spin-dipole/Fermi contact integrals       ...  NO (   0 nuclei)
Contact density integrals                 ...  NO (   0 nuclei)
Nucleus-orbit integrals                   ...  NO (   0 nuclei)
Geometric perturbations                   ...  NO (  35 nuclei)

Choice of electric origin   ... Center of mass
Position of electric origin ... ( -0.5952, -0.0332, -0.0682) 
Choice of magnetic origin   ... GIAO
Position of magnetic origin ... (  0.0000,  0.0000,  0.0000) 

Calculating integrals                     ... Electric Dipole (Length)     done (  0.0 sec)

Property integrals calculated in   0.0 sec

Maximum memory used throughout the entire PROPINT-calculation: 24.0 MB


-------------------------------------------------------------------------------
                          DFT DISPERSION CORRECTION                            
                                                                               
                              DFTD3 V3.1  Rev 1                                
                          USING Becke-Johnson damping                          
-------------------------------------------------------------------------------
-------------------------   ----------------
Dispersion correction           -0.074568106
-------------------------   ----------------


-------------------------   --------------------
FINAL SINGLE POINT ENERGY      -874.204518082146
-------------------------   --------------------

------------------------------------------------------------------------------
                         ORCA SCF GRADIENT CALCULATION
------------------------------------------------------------------------------

Nuc. rep. gradient        (SHARK) ... done (  0.0 sec)
HCore & Overlap gradient  (SHARK) ... done (  0.9 sec)
Split-RIJ-J gradient      (SHARK) ... done (  5.0 sec)
COSX-gradient                     ... done ( 76.8 sec)
XC gradient                       ... done ( 12.9 sec)
CPCM gradient                     ... done (  4.6 sec)
Dispersion correction             ... done (  0.1 sec)

-------------------
DISPERSION GRADIENT
-------------------

   1   C   :   -0.000078878   -0.000089890   -0.000122675
   2   C   :   -0.000062511    0.000094491    0.000120351
   3   C   :   -0.000297617    0.000195842    0.000238550
   4   C   :    0.001333254   -0.000815504   -0.000991051
   5   N   :   -0.000479888   -0.000229053   -0.000334226
   6   C   :   -0.004139799    0.000225831    0.000040967
   7   C   :    0.000465117   -0.000031999   -0.000004853
   8   C   :    0.000257675   -0.000071643   -0.000086109
   9   C   :   -0.000024860   -0.000224513   -0.000324433
  10   C   :    0.000821067    0.000875933    0.001321281
  11   N   :   -0.000689621    0.000160028    0.000198922
  12   C   :   -0.003810698   -0.000651387   -0.001166405
  13   C   :    0.000337894    0.000163288    0.000259055
  14   C   :    0.000404690   -0.000085535    0.000174671
  15   C   :    0.000413732    0.000179972   -0.000001935
  16   N   :   -0.000146306   -0.000032552   -0.000049454
  17   C   :    0.003066926   -0.000291287   -0.000234792
  18   C   :    0.000053417    0.000028938    0.000056648
  19   N   :   -0.000291486    0.000110198    0.000133273
  20   C   :    0.002632596    0.000680614    0.001059097
  21   C   :   -0.000254421   -0.000149136   -0.000210410
  22   H   :   -0.000252536   -0.000061233   -0.000095810
  23   H   :   -0.000229054    0.000100694    0.000117912
  24   H   :   -0.000090536    0.000193353    0.000248063
  25   H   :    0.000039061    0.000202272    0.000262200
  26   H   :    0.000008453   -0.000186436   -0.000268247
  27   H   :    0.000027952   -0.000191115   -0.000273862
  28   H   :    0.000104595   -0.000190700   -0.000265380
  29   H   :    0.000069292    0.000149861    0.000228778
  30   H   :    0.000191645   -0.000111067    0.000137494
  31   H   :    0.000252367   -0.000245567    0.000051511
  32   H   :    0.000265025    0.000135001   -0.000201071
  33   H   :    0.000198975    0.000161641   -0.000044222
  34   H   :    0.000021521    0.000174681    0.000261311
  35   H   :   -0.000117040   -0.000174023   -0.000235148

Difference to translation invariance:
           :    0.0000000000    0.0000000000    0.0000000000

Difference to rotation invariance:
           :    0.0000000000   -0.0000000000    0.0000000000

Norm of the Dispersion gradient    ...    0.0078782834
RMS gradient                       ...    0.0007688417
MAX gradient                       ...    0.0041397989

------------------
CARTESIAN GRADIENT
------------------

   1   C   :    0.000173251   -0.000070181   -0.000069036
   2   C   :    0.000044453    0.000132788    0.000174140
   3   C   :   -0.000132905   -0.000069722   -0.000143404
   4   C   :    0.000068481    0.000292766    0.000480754
   5   N   :    0.000205574    0.000065306   -0.000154665
   6   C   :   -0.000568817   -0.000049862   -0.000013994
   7   C   :    0.000317919    0.000036631    0.000088167
   8   C   :   -0.000084138   -0.000175912   -0.000091206
   9   C   :   -0.000063885    0.000160439    0.000167475
  10   C   :    0.000348583   -0.000305631   -0.000357957
  11   N   :   -0.000274172   -0.000030017   -0.000134554
  12   C   :   -0.000003844    0.000145349    0.000260498
  13   C   :    0.000212800    0.000244907    0.000055881
  14   C   :    0.000163359   -0.000017709   -0.000208794
  15   C   :   -0.000025169   -0.000374759   -0.000064673
  16   N   :    0.000072789    0.000012273    0.000045877
  17   C   :   -0.000491936    0.000187138    0.000287695
  18   C   :   -0.000136955    0.000005218   -0.000144149
  19   N   :    0.000521814    0.000179063    0.000078843
  20   C   :   -0.000342047   -0.000362024   -0.000411079
  21   C   :   -0.000190340    0.000027027    0.000020516
  22   H   :    0.000016261   -0.000026130   -0.000026759
  23   H   :    0.000024611    0.000003777    0.000019257
  24   H   :   -0.000046240   -0.000002950    0.000004172
  25   H   :    0.000056836   -0.000140862    0.000075183
  26   H   :    0.000093805   -0.000039788   -0.000042252
  27   H   :   -0.000085648   -0.000029336   -0.000028508
  28   H   :    0.000086099    0.000035129    0.000051745
  29   H   :   -0.000313086    0.000011361    0.000012833
  30   H   :    0.000051172   -0.000016910   -0.000053391
  31   H   :    0.000030213   -0.000096372    0.000178692
  32   H   :    0.000077399    0.000260708   -0.000037217
  33   H   :    0.000031259   -0.000026537   -0.000029296
  34   H   :    0.000153219    0.000027195   -0.000007427
  35   H   :    0.000009283    0.000007627    0.000016633

Difference to translation invariance:
           :    0.0000000000    0.0000000000    0.0000000000

Difference to rotation invariance:
           :   -0.0001479395    0.0008305841    0.0006216284

Norm of the Cartesian gradient     ...    0.0018445955
RMS gradient                       ...    0.0001800141
MAX gradient                       ...    0.0005688172

-------
TIMINGS
-------

Total SCF gradient time     ....      100.227 sec

Densities                   ....       0.004 sec  (  0.0%)
One electron gradient       ....       0.862 sec  (  0.9%)
RI-J Coulomb gradient       ....       5.012 sec  (  5.0%)
COSX gradient               ....      76.849 sec  ( 76.7%)
XC gradient                 ....      12.884 sec  ( 12.9%)
CPCM gradient               ....       4.551 sec  (  4.5%)
   A-Matrix (El+Nuc)        ....       0.512 sec  (  0.5%)
   Potential                ....       4.039 sec  (  4.0%)

Maximum memory used throughout the entire SCFGRAD-calculation: 53.0 MB
------------------------------------------------------------------------------
                         ORCA GEOMETRY RELAXATION STEP
------------------------------------------------------------------------------

Reading the OPT-File                    .... done
Getting information on internals        .... done
Copying old internal coords+grads       .... done
Making the new internal coordinates     .... (2022 redundants) done
Validating the new internal coordinates .... (2022 redundants) done
Calculating the B-matrix                .... done
Calculating the G,G- and P matrices     .... done
Transforming gradient to internals      .... done
Projecting the internal gradient        .... done
Number of atoms                         ....  35
Number of internal coordinates          .... 206
Current Energy                          ....  -874.204518082 Eh
Current gradient norm                   ....     0.001844595 Eh/bohr
Maximum allowed component of the step   ....  0.300
Current trust radius                    ....  0.675
Updating the Hessian (BFGS)             .... done
Forming the augmented Hessian           .... done
Diagonalizing the augmented Hessian     .... done
Last element of RFO vector              ....  0.999527621
Lowest eigenvalues of augmented Hessian:
 -0.000012914  0.008814989  0.010728259  0.021013946  0.021962056
Length of the computed step             ....  0.030747809
The final length of the internal step   ....  0.030747809
Converting the step to Cartesian space:
 Initial RMS(Int)=    0.0021423013
Transforming coordinates:
 Iter   0:  RMS(Cart)=    0.0123403164 RMS(Int)=    0.4377644363
done
Storing new coordinates                 .... done
The predicted energy change is          ....    -0.000006463
Previously predicted energy change      ....    -0.000040486
Actually observed energy change         ....    -0.000045803
Ratio of predicted to observed change   ....     1.131342628
New trust radius                        ....     0.700000000

                                .--------------------.
          ----------------------|Geometry convergence|-------------------------
          Item                value                   Tolerance       Converged
          ---------------------------------------------------------------------
          Energy change      -0.0000458035            0.0000050000      NO
          RMS gradient        0.0000882827            0.0001000000      YES
          MAX gradient        0.0004580277            0.0003000000      NO
          RMS step            0.0021423013            0.0020000000      NO
          MAX step            0.0143914699            0.0040000000      NO
          -------------------------------------------------------------------------
          ........................................................
          Max(Bonds)      0.0004      Max(Angles)    0.08
          Max(Dihed)        0.82      Max(Improp)    0.00
          ---------------------------------------------------------------------

The optimization has not yet converged - more geometry cycles are needed


    ---------------------------------------------------------------------------
                         Redundant Internal Coordinates
                            (Angstroem and degrees)

        Definition                    Value    dE/dq     Step     New-Value
    ----------------------------------------------------------------------------
     1. B(C   1,C   0)                1.4132  0.000140 -0.0002    1.4131   
     2. B(C   2,C   1)                1.3966 -0.000136  0.0001    1.3967   
     3. B(C   3,C   2)                1.3989  0.000020 -0.0001    1.3988   
     4. B(N   4,C   3)                1.3789  0.000092 -0.0002    1.3787   
     5. B(C   5,N   4)                1.3782 -0.000137  0.0001    1.3783   
     6. B(C   6,C   5)                1.4681  0.000159 -0.0001    1.4680   
     7. B(C   7,C   6)                1.4208  0.000095 -0.0001    1.4207   
     8. B(C   8,C   7)                1.3915 -0.000085  0.0000    1.3916   
     9. B(C   9,C   8)                1.3991 -0.000023 -0.0000    1.3990   
    10. B(N  10,C   9)                1.3779 -0.000081 -0.0002    1.3777   
    11. B(C  11,N  10)                1.3801  0.000157  0.0001    1.3802   
    12. B(C  12,C  11)                1.4727  0.000158  0.0001    1.4728   
    13. B(C  13,C  12)                1.5195  0.000239 -0.0000    1.5194   
    14. B(C  14,C  13)                1.4971 -0.000014 -0.0004    1.4967   
    15. B(C  14,C  12)                1.5196  0.000170  0.0002    1.5198   
    16. B(N  15,C  11)                1.3206  0.000085 -0.0002    1.3204   
    17. B(C  16,N  15)                1.3866  0.000202 -0.0003    1.3863   
    18. B(C  16,C   9)                1.4220  0.000350 -0.0002    1.4218   
    19. B(C  17,C  16)                1.3990 -0.000131  0.0000    1.3991   
    20. B(C  17,C   6)                1.4043 -0.000050  0.0001    1.4044   
    21. B(N  18,C   5)                1.3247 -0.000259  0.0001    1.3247   
    22. B(C  19,N  18)                1.3820  0.000231 -0.0002    1.3818   
    23. B(C  19,C   3)                1.4241  0.000458 -0.0004    1.4237   
    24. B(C  20,C  19)                1.4054  0.000001 -0.0001    1.4053   
    25. B(C  20,C   0)                1.3950 -0.000119  0.0001    1.3951   
    26. B(H  21,C   0)                1.0931  0.000001 -0.0000    1.0931   
    27. B(H  22,C   1)                1.0930 -0.000011 -0.0000    1.0930   
    28. B(H  23,C   2)                1.0922 -0.000004  0.0000    1.0922   
    29. B(H  24,N   4)                1.0137  0.000002 -0.0000    1.0137   
    30. B(H  25,C   7)                1.0906 -0.000014  0.0000    1.0906   
    31. B(H  26,C   8)                1.0919  0.000004  0.0000    1.0919   
    32. B(H  27,N  10)                1.0148  0.000013 -0.0000    1.0148   
    33. B(H  28,C  12)                1.0921  0.000029 -0.0000    1.0921   
    34. B(H  29,C  13)                1.0935 -0.000006 -0.0000    1.0934   
    35. B(H  30,C  13)                1.0942 -0.000002 -0.0000    1.0942   
    36. B(H  31,C  14)                1.0942  0.000000 -0.0000    1.0942   
    37. B(H  32,C  14)                1.0935 -0.000007 -0.0000    1.0935   
    38. B(H  33,C  17)                1.0917 -0.000047  0.0000    1.0917   
    39. B(H  34,C  20)                1.0926 -0.000018 -0.0000    1.0926   
    40. A(C   1,C   0,H  21)          119.08 -0.000006   -0.03    119.05   
    41. A(C  20,C   0,H  21)          119.47 -0.000093    0.03    119.50   
    42. A(C   1,C   0,C  20)          121.45  0.000099   -0.01    121.44   
    43. A(C   0,C   1,H  22)          119.26  0.000029   -0.01    119.25   
    44. A(C   2,C   1,H  22)          119.25 -0.000028    0.02    119.27   
    45. A(C   0,C   1,C   2)          121.49 -0.000001   -0.01    121.48   
    46. A(C   3,C   2,H  23)          121.60  0.000026   -0.03    121.57   
    47. A(C   1,C   2,H  23)          121.53 -0.000070    0.02    121.55   
    48. A(C   1,C   2,C   3)          116.86  0.000044    0.01    116.87   
    49. A(C   2,C   3,C  19)          122.43 -0.000087   -0.00    122.43   
    50. A(N   4,C   3,C  19)          104.66 -0.000064   -0.00    104.66   
    51. A(C   2,C   3,N   4)          132.91  0.000152    0.00    132.91   
    52. A(C   3,N   4,H  24)          125.59  0.000065   -0.03    125.56   
    53. A(C   5,N   4,H  24)          126.61 -0.000064    0.02    126.63   
    54. A(C   3,N   4,C   5)          107.80 -0.000000    0.01    107.81   
    55. A(C   6,C   5,N  18)          124.91 -0.000077    0.01    124.92   
    56. A(N   4,C   5,C   6)          123.22 -0.000136    0.02    123.24   
    57. A(N   4,C   5,N  18)          111.87  0.000212   -0.03    111.84   
    58. A(C   5,C   6,C   7)          118.29  0.000005   -0.01    118.28   
    59. A(C   7,C   6,C  17)          120.24  0.000061   -0.00    120.23   
    60. A(C   5,C   6,C  17)          121.47 -0.000067    0.01    121.48   
    61. A(C   8,C   7,H  25)          120.02 -0.000078    0.08    120.11   
    62. A(C   6,C   7,H  25)          118.02  0.000148   -0.08    117.95   
    63. A(C   6,C   7,C   8)          121.95 -0.000070   -0.01    121.95   
    64. A(C   7,C   8,H  26)          121.14 -0.000149    0.03    121.17   
    65. A(C   7,C   8,C   9)          117.15  0.000105    0.01    117.16   
    66. A(C   9,C   8,H  26)          121.71  0.000044   -0.04    121.67   
    67. A(N  10,C   9,C  16)          104.72 -0.000029    0.01    104.72   
    68. A(C   8,C   9,C  16)          122.06 -0.000105   -0.01    122.05   
    69. A(C   8,C   9,N  10)          133.22  0.000134    0.00    133.22   
    70. A(C  11,N  10,H  27)          126.66 -0.000160    0.06    126.72   
    71. A(C   9,N  10,H  27)          125.70  0.000044   -0.05    125.65   
    72. A(C   9,N  10,C  11)          107.64  0.000115   -0.00    107.63   
    73. A(N  10,C  11,C  12)          123.69 -0.000133    0.01    123.70   
    74. A(C  12,C  11,N  15)          124.14  0.000175    0.01    124.15   
    75. A(N  10,C  11,N  15)          112.17 -0.000042   -0.01    112.16   
    76. A(C  13,C  12,C  14)           59.03 -0.000086   -0.02     59.01   
    77. A(C  14,C  12,H  28)          117.25  0.000134   -0.07    117.18   
    78. A(C  13,C  12,H  28)          117.34  0.000104   -0.05    117.28   
    79. A(C  11,C  12,H  28)          111.54 -0.000218    0.03    111.56   
    80. A(C  11,C  12,C  13)          121.32  0.000085    0.06    121.37   
    81. A(C  11,C  12,C  14)          121.30  0.000093    0.04    121.34   
    82. A(C  12,C  13,C  14)           60.49  0.000022    0.02     60.51   
    83. A(C  14,C  13,H  30)          118.53  0.000163   -0.07    118.45   
    84. A(C  12,C  13,H  30)          117.48  0.000055   -0.05    117.42   
    85. A(C  14,C  13,H  29)          118.59 -0.000024    0.05    118.64   
    86. A(C  12,C  13,H  29)          116.73 -0.000012   -0.04    116.69   
    87. A(H  29,C  13,H  30)          114.52 -0.000122    0.06    114.58   
    88. A(C  12,C  14,H  32)          116.67 -0.000003   -0.03    116.64   
    89. A(C  13,C  14,H  31)          118.61  0.000097   -0.07    118.54   
    90. A(C  12,C  14,H  31)          117.53  0.000049   -0.07    117.45   
    91. A(C  12,C  14,C  13)           60.48  0.000064    0.00     60.48   
    92. A(H  31,C  14,H  32)          114.49 -0.000074    0.07    114.56   
    93. A(C  13,C  14,H  32)          118.56 -0.000060    0.05    118.61   
    94. A(C  11,N  15,C  16)          105.70  0.000028    0.01    105.71   
    95. A(N  15,C  16,C  17)          130.21  0.000084   -0.01    130.20   
    96. A(C   9,C  16,C  17)          120.01 -0.000012    0.01    120.02   
    97. A(C   9,C  16,N  15)          109.78 -0.000072   -0.00    109.78   
    98. A(C   6,C  17,C  16)          118.59  0.000020   -0.00    118.58   
    99. A(C  16,C  17,H  33)          119.13 -0.000159    0.07    119.20   
   100. A(C   6,C  17,H  33)          122.28  0.000139   -0.07    122.21   
   101. A(C   5,N  18,C  19)          105.97  0.000022    0.01    105.97   
   102. A(N  18,C  19,C  20)          130.61  0.000189   -0.01    130.59   
   103. A(C   3,C  19,C  20)          119.68 -0.000020    0.00    119.69   
   104. A(C   3,C  19,N  18)          109.71 -0.000170    0.01    109.72   
   105. A(C   0,C  20,C  19)          118.08 -0.000035    0.01    118.09   
   106. A(C  19,C  20,H  34)          120.43  0.000009   -0.00    120.43   
   107. A(C   0,C  20,H  34)          121.49  0.000026   -0.00    121.48   
   108. D(H  22,C   1,C   0,C  20)   -179.99  0.000003   -0.01   -180.00   
   109. D(C   2,C   1,C   0,C  20)     -0.02  0.000002   -0.01     -0.03   
   110. D(H  22,C   1,C   0,H  21)      0.01  0.000003   -0.01      0.00   
   111. D(C   2,C   1,C   0,H  21)    179.99  0.000002   -0.01    179.98   
   112. D(C   3,C   2,C   1,H  22)    179.97 -0.000001    0.00    179.97   
   113. D(H  23,C   2,C   1,H  22)      0.00 -0.000000    0.00      0.00   
   114. D(H  23,C   2,C   1,C   0)   -179.97  0.000000    0.00   -179.97   
   115. D(C   3,C   2,C   1,C   0)     -0.01 -0.000001    0.00     -0.01   
   116. D(C  19,C   3,C   2,H  23)   -179.97 -0.000005    0.02   -179.95   
   117. D(C  19,C   3,C   2,C   1)      0.06 -0.000004    0.01      0.08   
   118. D(N   4,C   3,C   2,H  23)     -0.05 -0.000004    0.01     -0.04   
   119. D(N   4,C   3,C   2,C   1)    179.98 -0.000003    0.01    179.99   
   120. D(H  24,N   4,C   3,C   2)     -0.50  0.000059   -0.18     -0.69   
   121. D(H  24,N   4,C   3,C  19)    179.42  0.000060   -0.19    179.23   
   122. D(C   5,N   4,C   3,C   2)   -179.94 -0.000008    0.02   -179.91   
   123. D(C   5,N   4,C   3,C  19)     -0.01 -0.000007    0.02      0.01   
   124. D(N  18,C   5,N   4,H  24)   -179.37 -0.000058    0.18   -179.19   
   125. D(N  18,C   5,N   4,C   3)      0.05  0.000011   -0.03      0.03   
   126. D(C   6,C   5,N   4,H  24)      0.51 -0.000063    0.20      0.70   
   127. D(C   6,C   5,N   4,C   3)    179.93  0.000006   -0.01    179.92   
   128. D(C  17,C   6,C   5,N   4)      2.60 -0.000133    0.81      3.41   
   129. D(C   7,C   6,C   5,N  18)      2.51 -0.000126    0.78      3.29   
   130. D(C  17,C   6,C   5,N  18)   -177.54 -0.000138    0.82   -176.71   
   131. D(C   7,C   6,C   5,N   4)   -177.35 -0.000120    0.77   -176.59   
   132. D(H  25,C   7,C   6,C  17)    179.81  0.000001   -0.01    179.80   
   133. D(H  25,C   7,C   6,C   5)     -0.23 -0.000012    0.03     -0.20   
   134. D(C   8,C   7,C   6,C  17)     -0.30 -0.000004   -0.00     -0.30   
   135. D(C   8,C   7,C   6,C   5)    179.65 -0.000017    0.04    179.70   
   136. D(C   9,C   8,C   7,H  25)    179.97 -0.000005    0.01    179.98   
   137. D(C   9,C   8,C   7,C   6)      0.08 -0.000000    0.00      0.09   
   138. D(H  26,C   8,C   7,C   6)   -179.88  0.000002   -0.00   -179.89   
   139. D(H  26,C   8,C   7,H  25)      0.00 -0.000002    0.01      0.01   
   140. D(C  16,C   9,C   8,H  26)   -179.88  0.000001    0.00   -179.87   
   141. D(C  16,C   9,C   8,C   7)      0.16  0.000003   -0.00      0.15   
   142. D(N  10,C   9,C   8,H  26)      0.06  0.000016   -0.04      0.01   
   143. D(N  10,C   9,C   8,C   7)   -179.91  0.000018   -0.05   -179.96   
   144. D(H  27,N  10,C   9,C  16)    179.99  0.000006   -0.01    179.98   
   145. D(H  27,N  10,C   9,C   8)      0.05 -0.000007    0.03      0.08   
   146. D(C  11,N  10,C   9,C  16)      0.05 -0.000003    0.01      0.06   
   147. D(C  11,N  10,C   9,C   8)   -179.89 -0.000016    0.05   -179.84   
   148. D(N  15,C  11,N  10,H  27)   -179.94 -0.000005    0.01   -179.93   
   149. D(N  15,C  11,N  10,C   9)      0.01  0.000004   -0.01     -0.00   
   150. D(C  12,C  11,N  10,H  27)      0.13  0.000003    0.00      0.13   
   151. D(C  12,C  11,N  10,C   9)   -179.93  0.000012   -0.02   -179.94   
   152. D(H  28,C  12,C  11,N  10)   -178.99  0.000005    0.16   -178.83   
   153. D(C  14,C  12,C  11,N  15)   -143.60 -0.000036    0.19   -143.41   
   154. D(C  14,C  12,C  11,N  10)     36.32 -0.000045    0.20     36.52   
   155. D(C  13,C  12,C  11,N  15)    145.97 -0.000005    0.18    146.15   
   156. D(C  13,C  12,C  11,N  10)    -34.10 -0.000014    0.19    -33.91   
   157. D(H  29,C  13,C  12,H  28)      2.40 -0.000100    0.16      2.56   
   158. D(H  29,C  13,C  12,C  14)    109.31 -0.000016    0.09    109.40   
   159. D(H  29,C  13,C  12,C  11)   -140.57  0.000026    0.10   -140.47   
   160. D(C  14,C  13,C  12,H  28)   -106.91 -0.000084    0.07   -106.84   
   161. D(H  30,C  13,C  12,C  11)      1.20 -0.000138    0.08      1.28   
   162. D(C  14,C  13,C  12,C  11)    110.12  0.000043    0.01    110.14   
   163. D(C  12,C  14,C  13,H  29)   -106.27 -0.000005    0.07   -106.20   
   164. D(H  32,C  14,C  12,C  11)    140.55  0.000019   -0.12    140.43   
   165. D(H  31,C  14,C  12,H  28)   -143.95  0.000152   -0.09   -144.04   
   166. D(H  31,C  14,C  12,C  13)    109.00  0.000119   -0.06    108.94   
   167. D(H  31,C  14,C  12,C  11)     -1.16  0.000088   -0.10     -1.26   
   168. D(C  13,C  14,C  12,H  28)    107.05  0.000033   -0.03    107.02   
   169. D(C  12,C  14,C  13,H  30)    107.20  0.000006   -0.03    107.18   
   170. D(C  13,C  14,C  12,C  11)   -110.15 -0.000031   -0.05   -110.20   
   171. D(H  32,C  14,C  13,C  12)    106.20  0.000049   -0.05    106.15   
   172. D(H  31,C  14,C  13,H  30)     -0.02 -0.000038    0.03      0.01   
   173. D(H  31,C  14,C  13,H  29)    146.51 -0.000049    0.13    146.63   
   174. D(H  31,C  14,C  13,C  12)   -107.23 -0.000044    0.06   -107.17   
   175. D(C  16,N  15,C  11,C  12)    179.87 -0.000012    0.01    179.89   
   176. D(C  16,N  15,C  11,N  10)     -0.06 -0.000003    0.00     -0.05   
   177. D(C  17,C  16,N  15,C  11)   -179.85  0.000019   -0.05   -179.90   
   178. D(C   9,C  16,N  15,C  11)      0.09  0.000002    0.00      0.09   
   179. D(C  17,C  16,C   9,N  10)    179.86 -0.000014    0.04    179.90   
   180. D(C  17,C  16,C   9,C   8)     -0.19 -0.000003    0.00     -0.18   
   181. D(N  15,C  16,C   9,N  10)     -0.08  0.000001   -0.01     -0.09   
   182. D(N  15,C  16,C   9,C   8)    179.86  0.000012   -0.04    179.82   
   183. D(H  33,C  17,C  16,N  15)     -0.29  0.000005   -0.04     -0.33   
   184. D(H  33,C  17,C  16,C   9)    179.77  0.000023   -0.09    179.68   
   185. D(C   6,C  17,C  16,N  15)    179.91 -0.000020    0.05    179.96   
   186. D(C   6,C  17,C  16,C   9)     -0.03 -0.000001    0.00     -0.03   
   187. D(H  33,C  17,C   6,C   7)   -179.53 -0.000020    0.09   -179.44   
   188. D(H  33,C  17,C   6,C   5)      0.52 -0.000007    0.05      0.57   
   189. D(C  16,C  17,C   6,C   7)      0.27  0.000005   -0.00      0.26   
   190. D(C  16,C  17,C   6,C   5)   -179.69  0.000018   -0.05   -179.73   
   191. D(C  19,N  18,C   5,C   6)   -179.95 -0.000004    0.01   -179.94   
   192. D(C  19,N  18,C   5,N   4)     -0.07 -0.000009    0.02     -0.05   
   193. D(C  20,C  19,N  18,C   5)   -179.94 -0.000001    0.01   -179.93   
   194. D(C   3,C  19,N  18,C   5)      0.06  0.000004   -0.01      0.05   
   195. D(C  20,C  19,C   3,N   4)    179.97  0.000006   -0.02    179.95   
   196. D(C  20,C  19,C   3,C   2)     -0.10  0.000007   -0.02     -0.12   
   197. D(N  18,C  19,C   3,N   4)     -0.03  0.000002   -0.01     -0.04   
   198. D(N  18,C  19,C   3,C   2)    179.91  0.000002   -0.01    179.89   
   199. D(H  34,C  20,C  19,N  18)      0.03  0.000001   -0.00      0.03   
   200. D(H  34,C  20,C  19,C   3)   -179.97 -0.000004    0.01   -179.95   
   201. D(C   0,C  20,C  19,N  18)   -179.94  0.000000    0.00   -179.93   
   202. D(C   0,C  20,C  19,C   3)      0.07 -0.000005    0.02      0.08   
   203. D(H  34,C  20,C   0,H  21)      0.02  0.000000   -0.00      0.02   
   204. D(H  34,C  20,C   0,C   1)   -179.98  0.000000    0.00   -179.98   
   205. D(C  19,C  20,C   0,H  21)    179.98  0.000001   -0.00    179.98   
   206. D(C  19,C  20,C   0,C   1)     -0.01  0.000001   -0.00     -0.01   
    ----------------------------------------------------------------------------

Geometry step timings:
Preparation and reading OPT file:      0.008 s (40.000 %)
Internal coordinates            :      0.000 s ( 0.000 %)
B/P matrices and projection     :      0.004 s (20.000 %)
Hessian update/contruction      :      0.002 s (10.000 %)
Making the step                 :      0.002 s (10.000 %)
Converting the step to Cartesian:      0.001 s ( 5.000 %)
Storing new data                :      0.000 s ( 0.000 %)
Checking convergence            :      0.000 s ( 0.000 %)
Final printing                  :      0.003 s (15.000 %)
Total time                      :      0.020 s

Time for energy+gradient        :    232.590 s
Time for complete geometry iter :    232.695 s

         *************************************************************
         *                GEOMETRY OPTIMIZATION CYCLE   6            *
         *************************************************************
---------------------------------
CARTESIAN COORDINATES (ANGSTROEM)
---------------------------------
  C     -6.593184   -0.166274   -0.608821
  C     -6.469185    0.694670    0.504795
  C     -5.219364    1.041298    1.023088
  C     -4.098371    0.496297    0.388272
  N     -2.743156    0.611049    0.614454
  C     -2.091956   -0.151900   -0.330865
  C     -0.630434   -0.270246   -0.401766
  C     -0.067042   -1.026269   -1.464515
  C      1.308170   -1.182931   -1.608359
  C      2.124651   -0.563182   -0.656227
  N      3.489741   -0.499853   -0.481724
  C      3.732412    0.259213    0.645161
  C      5.081669    0.554497    1.156527
  C      6.212809   -0.452260    1.031612
  C      6.247873    0.800683    0.213627
  N      2.616820    0.687940    1.206532
  C      1.587233    0.194828    0.419980
  C      0.201980    0.342449    0.548994
  N     -2.941940   -0.750408   -1.151999
  C     -4.203840   -0.371450   -0.735485
  C     -5.472126   -0.706895   -1.239140
  H     -7.591064   -0.411554   -0.981647
  H     -7.371674    1.098012    0.971182
  H     -5.122109    1.706315    1.884041
  H     -2.312133    1.170375    1.341780
  H     -0.748068   -1.488694   -2.179852
  H      1.727651   -1.765367   -2.431241
  H      4.183276   -0.937395   -1.079504
  H      5.042959    1.153323    2.068986
  H      6.889262   -0.539400    1.886225
  H      5.992296   -1.397984    0.527426
  H      6.051875    0.729444   -0.860512
  H      6.948559    1.591139    0.496273
  H     -0.196441    0.922908    1.383398
  H     -5.567250   -1.372379   -2.100495

----------------------------
CARTESIAN COORDINATES (A.U.)
----------------------------
  NO LB      ZA    FRAG     MASS         X           Y           Z
   0 C     6.0000    0    12.011  -12.459312   -0.314212   -1.150505
   1 C     6.0000    0    12.011  -12.224988    1.312736    0.953925
   2 C     6.0000    0    12.011   -9.863169    1.967767    1.933356
   3 C     6.0000    0    12.011   -7.744798    0.937866    0.733727
   4 N     7.0000    0    14.007   -5.183814    1.154714    1.161150
   5 C     6.0000    0    12.011   -3.953223   -0.287050   -0.625245
   6 C     6.0000    0    12.011   -1.191347   -0.510691   -0.759229
   7 C     6.0000    0    12.011   -0.126691   -1.939367   -2.767531
   8 C     6.0000    0    12.011    2.472083   -2.235416   -3.039359
   9 C     6.0000    0    12.011    4.015008   -1.064260   -1.240090
  10 N     7.0000    0    14.007    6.594656   -0.944585   -0.910327
  11 C     6.0000    0    12.011    7.053237    0.489842    1.219177
  12 C     6.0000    0    12.011    9.602963    1.047848    2.185520
  13 C     6.0000    0    12.011   11.740508   -0.854647    1.949464
  14 C     6.0000    0    12.011   11.806768    1.513072    0.403697
  15 N     7.0000    0    14.007    4.945073    1.300018    2.280015
  16 C     6.0000    0    12.011    2.999436    0.368172    0.793647
  17 C     6.0000    0    12.011    0.381686    0.647135    1.037448
  18 N     7.0000    0    14.007   -5.559460   -1.418065   -2.176962
  19 C     6.0000    0    12.011   -7.944107   -0.701939   -1.389865
  20 C     6.0000    0    12.011  -10.340819   -1.335838   -2.341635
  21 H     1.0000    0     1.008  -14.345033   -0.777725   -1.855045
  22 H     1.0000    0     1.008  -13.930445    2.074942    1.835268
  23 H     1.0000    0     1.008   -9.679384    3.224468    3.560322
  24 H     1.0000    0     1.008   -4.369299    2.211688    2.535597
  25 H     1.0000    0     1.008   -1.413643   -2.813223   -4.119323
  26 H     1.0000    0     1.008    3.264787   -3.336060   -4.594380
  27 H     1.0000    0     1.008    7.905245   -1.771420   -2.039966
  28 H     1.0000    0     1.008    9.529811    2.179465    3.909816
  29 H     1.0000    0     1.008   13.018818   -1.019318    3.564448
  30 H     1.0000    0     1.008   11.323799   -2.641807    0.996691
  31 H     1.0000    0     1.008   11.436387    1.378450   -1.626133
  32 H     1.0000    0     1.008   13.130874    3.006817    0.937821
  33 H     1.0000    0     1.008   -0.371220    1.744044    2.614243
  34 H     1.0000    0     1.008  -10.520578   -2.593420   -3.969360

--------------------------------
INTERNAL COORDINATES (ANGSTROEM)
--------------------------------
 C      0   0   0     0.000000000000     0.00000000     0.00000000
 C      1   0   0     1.413060936983     0.00000000     0.00000000
 C      2   1   0     1.396721141406   121.47793924     0.00000000
 C      3   2   1     1.398800803865   116.87274446     0.00000000
 N      4   3   2     1.378743331701   132.90948210   179.98819758
 C      5   4   3     1.378325548927   107.80703078   180.08730499
 C      6   5   4     1.468018603244   123.23776835   179.91672457
 C      7   6   5     1.420709372572   118.28317032   183.41339421
 C      8   7   6     1.391560868655   121.94678418   179.69557911
 C      9   8   7     1.399030150749   117.16323660     0.08780646
 N     10   9   8     1.377655399571   133.22386290   180.04082265
 C     11  10   9     1.380195802212   107.63310019   180.15623726
 C     12  11  10     1.472814786353   123.69809443   180.05541698
 C     13  12  11     1.519421591726   121.37340077   326.08521639
 C     14  13  12     1.496727990214    60.50813244   110.13664040
 N     12  11  10     1.320412898344   112.15665910     0.00000000
 C     16  12  11     1.386316153456   105.70990223   359.94635460
 C     17  16  12     1.399057971767   130.20309050   180.09945012
 N      6   5   4     1.324743137256   111.84270985     0.02562699
 C     19   6   5     1.381841562214   105.97379556   359.95140876
 C      1   2   3     1.395114476367   121.44288312   359.97300117
 H      1   2   3     1.093127231894   119.05219109   179.98008529
 H      2   1   3     1.093017542123   119.25202258   180.02425655
 H      3   2   1     1.092221180269   121.55305982   180.02563709
 H      5   4   3     1.013720699522   125.56016695   359.31196336
 H      8   7   6     1.090568675604   117.94773803   359.79869047
 H      9   8   7     1.091938566492   121.17120347   180.11352077
 H     11  10   9     1.014777459130   125.64525647     0.08174629
 H     13  12  11     1.092094916147   111.56485647   181.17088609
 H     14  13  12     1.093409155907   116.68693483   219.53336581
 H     14  13  12     1.094177382841   117.42229256     1.28013497
 H     15  14  13     1.094196513468   118.54179222   252.83105686
 H     15  14  13     1.093467314733   118.61302088   106.15189030
 H     18  17  16     1.091742429064   119.20382229   359.66942896
 H     21   1   2     1.092634020984   121.48204842   180.02280880

---------------------------
INTERNAL COORDINATES (A.U.)
---------------------------
 C      0   0   0     0.000000000000     0.00000000     0.00000000
 C      1   0   0     2.670298181441     0.00000000     0.00000000
 C      2   1   0     2.639420442716   121.47793924     0.00000000
 C      3   2   1     2.643350435214   116.87274446     0.00000000
 N      4   3   2     2.605447305885   132.90948210   179.98819758
 C      5   4   3     2.604657810859   107.80703078   180.08730499
 C      6   5   4     2.774153119634   123.23776835   179.91672457
 C      7   6   5     2.684751630056   118.28317032   183.41339421
 C      8   7   6     2.629668940439   121.94678418   179.69557911
 C      9   8   7     2.643783838015   117.16323660     0.08780646
 N     10   9   8     2.603391412108   133.22386290   180.04082265
 C     11  10   9     2.608192077368   107.63310019   180.15623726
 C     12  11  10     2.783216592197   123.69809443   180.05541698
 C     13  12  11     2.871290690329   121.37340077   326.08521639
 C     14  13  12     2.828405998480    60.50813244   110.13664040
 N     12  11  10     2.495218761568   112.15665910     0.00000000
 C     16  12  11     2.619757865063   105.70990223   359.94635460
 C     17  16  12     2.643836412118   130.20309050   180.09945012
 N      6   5   4     2.503401727206   111.84270985     0.02562699
 C     19   6   5     2.611302113054   105.97379556   359.95140876
 C      1   2   3     2.636384285803   121.44288312   359.97300117
 H      1   2   3     2.065711097810   119.05219109   179.98008529
 H      2   1   3     2.065503814184   119.25202258   180.02425655
 H      3   2   1     2.063998908377   121.55305982   180.02563709
 H      5   4   3     1.915654498383   125.56016695   359.31196336
 H      8   7   6     2.060876127124   117.94773803   359.79869047
 H      9   8   7     2.063464845736   121.17120347   180.11352077
 H     11  10   9     1.917651484632   125.64525647     0.08174629
 H     13  12  11     2.063760303765   111.56485647   181.17088609
 H     14  13  12     2.066243856987   116.68693483   219.53336581
 H     14  13  12     2.067695595500   117.42229256     1.28013497
 H     15  14  13     2.067731747146   118.54179222   252.83105686
 H     15  14  13     2.066353761239   118.61302088   106.15189030
 H     18  17  16     2.063094199712   119.20382229   359.66942896
 H     21   1   2     2.064779064264   121.48204842   180.02280880

------------------------------------------------------------------------------
                   ___                                                        
                  /   \      - P O W E R E D   B Y -                         
                 /     \                                                     
                 |  |  |   _    _      __       _____    __    __             
                 |  |  |  | |  | |    /  \     |  _  \  |  |  /  |          
                  \  \/   | |  | |   /    \    | | | |  |  | /  /          
                 / \  \   | |__| |  /  /\  \   | |_| |  |  |/  /          
                |  |  |   |  __  | /  /__\  \  |    /   |      \           
                |  |  |   | |  | | |   __   |  |    \   |  |\   \          
                \     /   | |  | | |  |  |  |  | |\  \  |  | \   \       
                 \___/    |_|  |_| |__|  |__|  |_| \__\ |__|  \__/        
                                                                              
                      - O R C A' S   B I G   F R I E N D -                    
                                      &                                       
                       - I N T E G R A L  F E E D E R -                       
                                                                              
 v1 FN, 2020, v2 2021, v3 2022-2024                                           
------------------------------------------------------------------------------


----------------------
SHARK INTEGRAL PACKAGE
----------------------

Number of atoms                             ...     35
Number of basis functions                   ...    364
Number of shells                            ...    168
Maximum angular momentum                    ...      2
Integral batch strategy                     ... SHARK/LIBINT Hybrid
RI-J (if used) integral strategy            ... SPLIT-RIJ (Revised 2003 algorithm where possible)
Printlevel                                  ...      1
Contraction scheme used                     ... SEGMENTED contraction
Prescreening option                         ... SCHWARTZ
   Thresh                                   ... 2.500e-11
   Tcut                                     ... 2.500e-12
   Tpresel                                  ... 2.500e-12 
Coulomb Range Separation                    ... NOT USED
Exchange Range Separation                   ... NOT USED
Multipole approximations                    ... NOT USED
Finite Nucleus Model                        ... NOT USED
CABS basis                                  ... NOT available
Auxiliary Coulomb fitting basis             ... AVAILABLE
   # of basis functions in Aux-J            ...   1183
   # of shells in Aux-J                     ...    385
   Maximum angular momentum in Aux-J        ...      4
Auxiliary J/K fitting basis                 ... NOT available
Auxiliary Correlation fitting basis         ... NOT available
Auxiliary 'external' fitting basis          ... NOT available

Checking pre-screening integrals            ... done (  0.0 sec) Dimension = 168
   => SHARK Basis and OBASIS are compatible. Storing Pre-screening
Shell pair information
Shell pair cut-off parameter TPreSel        ...   2.5e-12
Total number of shell pairs                 ...     14196
Shell pairs after pre-screening             ...      9244
Total number of primitive shell pairs       ...     52318
Primitive shell pairs kept                  ...     22456
          la=0 lb=0:   2750 shell pairs
          la=1 lb=0:   3403 shell pairs
          la=1 lb=1:   1092 shell pairs
          la=2 lb=0:   1139 shell pairs
          la=2 lb=1:    729 shell pairs
          la=2 lb=2:    131 shell pairs

Checking whether 4 symmetric matrices of dimension 364 fit in memory
:Max Core in MB      =   2000.00
 MB in use           =     13.67
 MB left             =   1986.33
 MB needed           =      2.03
 Data fit in memory  = YES
Calculating RI/J V-Matrix + Cholesky decomp.... done (  0.2 sec)
Calculating Nuclear repulsion               ... done (  0.0 sec) ENN=   1446.984320586380 Eh

Diagonalization of the overlap matrix:
Smallest eigenvalue                        ... 2.369e-04
Time for diagonalization                   ...    0.010 sec
Threshold for overlap eigenvalues          ... 1.000e-07
Number of eigenvalues below threshold      ... 0
Time for construction of square roots      ...    0.007 sec
Total time needed                          ...    0.018 sec

-------------------
DFT GRID GENERATION
-------------------

General Integration Accuracy     IntAcc      ... 4.388
Radial Grid Type                 RadialGrid  ... OptM3 with GC (2021)
Angular Grid (max. ang.)         AngularGrid ... 4 (Lebedev-302)
Angular grid pruning method      GridPruning ... 4 (adaptive)
Weight generation scheme         WeightScheme... mBecke (2022)
Basis function cutoff            BFCut       ... 1.0000e-11
Integration weight cutoff        WCut        ... 1.0000e-14
Partially contracted basis set               ... off
Rotationally invariant grid construction     ... off
Angular grids for H and He will be reduced by one unit

Total number of grid points                  ...   170605
Total number of batches                      ...     2686
Average number of points per batch           ...       63
Average number of grid points per atom       ...     4874

--------------------
COSX GRID GENERATION
--------------------

GRIDX 1
-------
General Integration Accuracy     IntAcc      ... 3.816
Radial Grid Type                 RadialGrid  ... OptM3 with GC (2021)
Angular Grid (max. ang.)         AngularGrid ... 1 (Lebedev-50)
Angular grid pruning method      GridPruning ... 4 (adaptive)
Weight generation scheme         WeightScheme... mBecke (2022)
Basis function cutoff            BFCut       ... 1.0000e-11
Integration weight cutoff        WCut        ... 1.0000e-14
Partially contracted basis set               ... on
Rotationally invariant grid construction     ... off
Angular grids for H and He will be reduced by one unit

Total number of grid points                  ...    21671
Total number of batches                      ...      190
Average number of points per batch           ...      114
Average number of grid points per atom       ...      619
UseSFitting                                  ... on

GRIDX 2
-------
General Integration Accuracy     IntAcc      ... 4.020
Radial Grid Type                 RadialGrid  ... OptM3 with GC (2021)
Angular Grid (max. ang.)         AngularGrid ... 2 (Lebedev-110)
Angular grid pruning method      GridPruning ... 4 (adaptive)
Weight generation scheme         WeightScheme... mBecke (2022)
Basis function cutoff            BFCut       ... 1.0000e-11
Integration weight cutoff        WCut        ... 1.0000e-14
Partially contracted basis set               ... on
Rotationally invariant grid construction     ... off
Angular grids for H and He will be reduced by one unit

Total number of grid points                  ...    47659
Total number of batches                      ...      391
Average number of points per batch           ...      121
Average number of grid points per atom       ...     1362
UseSFitting                                  ... on

GRIDX 3
-------
General Integration Accuracy     IntAcc      ... 4.338
Radial Grid Type                 RadialGrid  ... OptM3 with GC (2021)
Angular Grid (max. ang.)         AngularGrid ... 3 (Lebedev-194)
Angular grid pruning method      GridPruning ... 4 (adaptive)
Weight generation scheme         WeightScheme... mBecke (2022)
Basis function cutoff            BFCut       ... 1.0000e-11
Integration weight cutoff        WCut        ... 1.0000e-14
Partially contracted basis set               ... on
Rotationally invariant grid construction     ... off
Angular grids for H and He will be reduced by one unit

Total number of grid points                  ...   104548
Total number of batches                      ...      836
Average number of points per batch           ...      125
Average number of grid points per atom       ...     2987
UseSFitting                                  ... on
Grids setup in   4.0 sec
Initializing property integral containers    ... done (  0.0 sec)

SHARK setup successfully completed in   4.4 seconds

Maximum memory used throughout the entire STARTUP-calculation: 70.5 MB
Occupation numbers will be reassigned to an Aufbau configuration
             **** ENERGY FILE WAS UPDATED (C:\Users\jabreumiranda\Radioprotection_Pipeline_Project\06_Quantum_DFT_ORCA\CHEMBL4952776_neutral_opt.en.tmp) ****
Finished Guess after   0.2 sec
Maximum memory used throughout the entire GUESS-calculation: 24.9 MB
--------------------
CPCM SOLVATION MODEL
--------------------
CPCM parameters:
  Epsilon                                         ...      80.1510
  Refrac                                          ...       1.3328
  Rsolv                                           ...       1.3000
  Surface type                                    ... GAUSSIAN VDW
  Discretization scheme                           ... Constant charge density
    Threshold for H atoms                         ...       5.0000 (charges/Ang^2)
    Threshold for non-H atoms                     ...       5.0000 (charges/Ang^2)
  Epsilon function type                           ...         CPCM
Solvent:                                          ... WATER
Radii:
  Scheme                                          ... Element-dependent radii
  Radius for C  used is    3.8550 Bohr (=   2.0400 Ang.)
  Radius for N  used is    3.5149 Bohr (=   1.8600 Ang.)
  Radius for H  used is    2.4944 Bohr (=   1.3200 Ang.)
Calculating surface                               ...        done! (  0.0s)
Cavity surface points                             ...         3194
Cavity Volume                                     ...    2197.8091
Cavity Surface-area                               ...    1135.0564
Calculating surface distance matrix               ...        done! (  0.1s)
Performing Cholesky decomposition & store         ...        done! (  0.4s)
Overall time for CPCM initialization              ...                 0.5s

----------------------------------------D-I-I-S--------------------------------------------
Iteration    Energy (Eh)           Delta-E    RMSDP     MaxDP     DIISErr   Damp  Time(sec)
-------------------------------------------------------------------------------------------
               ***  Starting incremental Fock matrix formation  ***
    1    -874.1295932993925817     0.00e+00  3.54e-05  1.04e-03  4.80e-03  0.700  20.3
    2    -874.1296822501126371    -8.90e-05  3.17e-05  9.78e-04  3.83e-03  0.700   8.0
                               ***Turning on AO-DIIS***
                              *** Initializing SOSCF ***
---------------------------------------S-O-S-C-F--------------------------------------
Iteration    Energy (Eh)           Delta-E    RMSDP     MaxDP     MaxGrad    Time(sec)
--------------------------------------------------------------------------------------
    3    -874.1297536059014419    -7.14e-05  8.60e-05  2.79e-03  2.89e-03     7.9
               *** Restarting incremental Fock matrix formation ***
    4    -874.1299390881758882    -1.85e-04  1.32e-05  3.00e-04  1.63e-04    20.1
    5    -874.1299408349414080    -1.75e-06  5.25e-06  2.20e-04  2.86e-05    11.9
    6    -874.1299407545802751     8.04e-08  2.82e-06  1.38e-04  5.82e-05    10.7
    7    -874.1299409294774705    -1.75e-07  7.46e-07  2.81e-05  4.87e-06    10.1
    8    -874.1299409253483645     4.13e-09  4.32e-07  1.61e-05  7.66e-06     8.2
                 **** Energy Check signals convergence ****

               *****************************************************
               *                     SUCCESS                       *
               *           SCF CONVERGED AFTER   8 CYCLES          *
               *****************************************************

Recomputing exchange energy using gridx3       ... done (   31.013 sec)
Old exchange energy                            :    -23.883261325 Eh
New exchange energy                            :    -23.883285439 Eh
Exchange energy change after final integration :     -0.000024113 Eh
Total energy after final integration           :   -874.129965043 Eh
             **** ENERGY FILE WAS UPDATED (C:\Users\jabreumiranda\Radioprotection_Pipeline_Project\06_Quantum_DFT_ORCA\CHEMBL4952776_neutral_opt.en.tmp) ****

----------------
TOTAL SCF ENERGY
----------------

Total Energy       :       -874.12996504301782 Eh          -23786.28562 eV

Components:
Nuclear Repulsion  :       1446.98432058638036 Eh           39374.44512 eV
Electronic Energy  :      -2321.08043900046005 Eh          -63159.80973 eV
One Electron Energy:      -4056.30820544964581 Eh         -110377.75777 eV
Two Electron Energy:       1735.22776644918576 Eh           47217.94804 eV
CPCM Dielectric    :         -0.03382251568261 Eh              -0.92036 eV

Virial components:
Potential Energy   :      -1739.14530300445949 Eh          -47324.54963 eV
Kinetic Energy     :        865.01533796144179 Eh           23538.26401 eV
Virial Ratio       :          2.01053695429616

DFT components:
N(Alpha)           :       72.000035495257 electrons
N(Beta)            :       72.000035495257 electrons
N(Total)           :      144.000070990514 electrons
E(X)               :      -94.890544423463 Eh       
E(C)               :       -5.772406804768 Eh       
E(XC)              :     -100.662951228230 Eh       

CPCM Solvation Model Properties:
Surface-charge          :         -0.02849678372771
Corrected charge        :         -0.00000000000000
Outlying charge corr.   :          0.00004237970923 Eh               0.00115 eV
Free-energy (cav+disp)  :  This term is not implemented in the current solvation scheme

---------------
SCF CONVERGENCE
---------------

  Last Energy change         ...   -4.1291e-09  Tolerance :   1.0000e-08
  Last MAX-Density change    ...    1.6055e-05  Tolerance :   1.0000e-07
  Last RMS-Density change    ...    4.3248e-07  Tolerance :   5.0000e-09
  Last DIIS Error            ...    2.8941e-03  Tolerance :   5.0000e-07
  Last Orbital Gradient      ...    7.6621e-06  Tolerance :   1.0000e-05
  Last Orbital Rotation      ...    1.0391e-05  Tolerance :   1.0000e-05


Total SCF time: 0 days 0 hours 2 min 16 sec 
Finished LeanSCF after 136.8 sec

Maximum memory used throughout the entire LEANSCF-calculation: 98.8 MB

------------------------------------------------------------------------------
                         ORCA PROPERTY INTEGRAL CALCULATIONS
------------------------------------------------------------------------------

GBWName                                   ... C:\Users\jabreumiranda\Radioprotection_Pipeline_Project\06_Quantum_DFT_ORCA\CHEMBL4952776_neutral_opt.gbw
Number of atoms                           ...     35
Number of basis functions                 ...    364
Max core memory                           ...   2000 MB

Dipole integrals                          ... YES
Quadrupole integrals                      ...  NO
Linear momentum integrals                 ...  NO
Angular momentum integrals                ...  NO
Higher moments length integrals           ...  NO
Higher moments velocity integrals         ...  NO
Kinetic energy integrals                  ...  NO
GIAO right hand sides                     ...  NO
GIAO dipole derivative integrals          ...  NO
SOC integrals                             ...  NO
EPR diamagnetic integrals (GIAO)          ...  NO
EPR gauge integrals                       ...  NO
Field gradient integrals                  ...  NO (   0 nuclei)
Spin-dipole/Fermi contact integrals       ...  NO (   0 nuclei)
Contact density integrals                 ...  NO (   0 nuclei)
Nucleus-orbit integrals                   ...  NO (   0 nuclei)
Geometric perturbations                   ...  NO (  35 nuclei)

Choice of electric origin   ... Center of mass
Position of electric origin ... ( -0.5951, -0.0341, -0.0676) 
Choice of magnetic origin   ... GIAO
Position of magnetic origin ... (  0.0000,  0.0000,  0.0000) 

Calculating integrals                     ... Electric Dipole (Length)     done (  0.0 sec)

Property integrals calculated in   0.0 sec

Maximum memory used throughout the entire PROPINT-calculation: 24.0 MB


-------------------------------------------------------------------------------
                          DFT DISPERSION CORRECTION                            
                                                                               
                              DFTD3 V3.1  Rev 1                                
                          USING Becke-Johnson damping                          
-------------------------------------------------------------------------------
-------------------------   ----------------
Dispersion correction           -0.074564699
-------------------------   ----------------


-------------------------   --------------------
FINAL SINGLE POINT ENERGY      -874.204529741939
-------------------------   --------------------

------------------------------------------------------------------------------
                         ORCA SCF GRADIENT CALCULATION
------------------------------------------------------------------------------

Nuc. rep. gradient        (SHARK) ... done (  0.0 sec)
HCore & Overlap gradient  (SHARK) ... done (  0.9 sec)
Split-RIJ-J gradient      (SHARK) ... done (  5.0 sec)
COSX-gradient                     ... done ( 76.8 sec)
XC gradient                       ... done ( 12.9 sec)
CPCM gradient                     ... done (  4.6 sec)
Dispersion correction             ... done (  0.1 sec)

-------------------
DISPERSION GRADIENT
-------------------

   1   C   :   -0.000079013   -0.000091018   -0.000121522
   2   C   :   -0.000062670    0.000095410    0.000119357
   3   C   :   -0.000297169    0.000197152    0.000236302
   4   C   :    0.001332943   -0.000823286   -0.000986252
   5   N   :   -0.000481666   -0.000233079   -0.000333408
   6   C   :   -0.004139995    0.000220559    0.000043653
   7   C   :    0.000465362   -0.000032768   -0.000004605
   8   C   :    0.000257239   -0.000070737   -0.000086391
   9   C   :   -0.000024600   -0.000222213   -0.000324995
  10   C   :    0.000823397    0.000871195    0.001329023
  11   N   :   -0.000691056    0.000159649    0.000200310
  12   C   :   -0.003817407   -0.000645514   -0.001172887
  13   C   :    0.000337829    0.000161675    0.000260033
  14   C   :    0.000405152   -0.000086319    0.000173935
  15   C   :    0.000414079    0.000180514   -0.000000734
  16   N   :   -0.000146525   -0.000033627   -0.000051363
  17   C   :    0.003071637   -0.000292551   -0.000235429
  18   C   :    0.000054303    0.000027848    0.000057365
  19   N   :   -0.000292210    0.000111095    0.000134223
  20   C   :    0.002634885    0.000694815    0.001051051
  21   C   :   -0.000253884   -0.000151045   -0.000207817
  22   H   :   -0.000252623   -0.000062435   -0.000094808
  23   H   :   -0.000229099    0.000101487    0.000117171
  24   H   :   -0.000090373    0.000195611    0.000246324
  25   H   :    0.000038967    0.000205829    0.000259642
  26   H   :    0.000008365   -0.000184819   -0.000269214
  27   H   :    0.000028091   -0.000189790   -0.000274711
  28   H   :    0.000104263   -0.000189929   -0.000266364
  29   H   :    0.000069401    0.000148096    0.000229776
  30   H   :    0.000191639   -0.000111883    0.000136810
  31   H   :    0.000252578   -0.000245262    0.000049314
  32   H   :    0.000265073    0.000136607   -0.000200000
  33   H   :    0.000198681    0.000162206   -0.000043012
  34   H   :    0.000021478    0.000173009    0.000262528
  35   H   :   -0.000117071   -0.000176481   -0.000233309

Difference to translation invariance:
           :   -0.0000000000    0.0000000000    0.0000000000

Difference to rotation invariance:
           :    0.0000000000   -0.0000000000   -0.0000000000

Norm of the Dispersion gradient    ...    0.0078862894
RMS gradient                       ...    0.0007696230
MAX gradient                       ...    0.0041399954

------------------
CARTESIAN GRADIENT
------------------

   1   C   :    0.000097863   -0.000009865    0.000008160
   2   C   :   -0.000075040    0.000058146    0.000062482
   3   C   :   -0.000052927   -0.000114324   -0.000194290
   4   C   :    0.000128555    0.000219350    0.000367843
   5   N   :   -0.000011129   -0.000000711   -0.000220396
   6   C   :   -0.000363843   -0.000071284   -0.000069890
   7   C   :    0.000208868   -0.000015515    0.000010433
   8   C   :   -0.000040444   -0.000167685   -0.000121801
   9   C   :   -0.000055862    0.000229147    0.000266244
  10   C   :    0.000541928   -0.000262703   -0.000289046
  11   N   :   -0.000376681   -0.000007535   -0.000098966
  12   C   :   -0.000329735    0.000233313    0.000361718
  13   C   :    0.000186816    0.000187098    0.000080601
  14   C   :    0.000339933    0.000094298   -0.000275288
  15   C   :    0.000145129   -0.000478025   -0.000021594
  16   N   :    0.000091886   -0.000133663   -0.000181147
  17   C   :   -0.000249611    0.000103400    0.000189169
  18   C   :    0.000049569    0.000041046   -0.000083610
  19   N   :    0.000294462    0.000190024    0.000149409
  20   C   :   -0.000221324   -0.000216520   -0.000229085
  21   C   :    0.000003043    0.000046566    0.000062544
  22   H   :   -0.000002380    0.000014846    0.000026753
  23   H   :    0.000013207   -0.000015770   -0.000011073
  24   H   :   -0.000000563   -0.000006430   -0.000002887
  25   H   :    0.000022788   -0.000111691    0.000072015
  26   H   :   -0.000039727    0.000017079    0.000035156
  27   H   :   -0.000023730   -0.000016270   -0.000000054
  28   H   :   -0.000004827   -0.000001646   -0.000000491
  29   H   :   -0.000225858    0.000008658   -0.000007808
  30   H   :   -0.000023194    0.000035300   -0.000014461
  31   H   :   -0.000046723   -0.000014894    0.000099365
  32   H   :   -0.000012804    0.000183662    0.000008407
  33   H   :   -0.000019390   -0.000020931    0.000026397
  34   H   :    0.000043904   -0.000006030   -0.000027343
  35   H   :    0.000007839    0.000009560    0.000022534

Difference to translation invariance:
           :    0.0000000000   -0.0000000000    0.0000000000

Difference to rotation invariance:
           :   -0.0001802559    0.0009095652    0.0004243299

Norm of the Cartesian gradient     ...    0.0016454683
RMS gradient                       ...    0.0001605813
MAX gradient                       ...    0.0005419279

-------
TIMINGS
-------

Total SCF gradient time     ....      100.250 sec

Densities                   ....       0.004 sec  (  0.0%)
One electron gradient       ....       0.864 sec  (  0.9%)
RI-J Coulomb gradient       ....       4.987 sec  (  5.0%)
COSX gradient               ....      76.800 sec  ( 76.6%)
XC gradient                 ....      12.932 sec  ( 12.9%)
CPCM gradient               ....       4.596 sec  (  4.6%)
   A-Matrix (El+Nuc)        ....       0.520 sec  (  0.5%)
   Potential                ....       4.076 sec  (  4.1%)

Maximum memory used throughout the entire SCFGRAD-calculation: 53.1 MB
------------------------------------------------------------------------------
                         ORCA GEOMETRY RELAXATION STEP
------------------------------------------------------------------------------

Reading the OPT-File                    .... done
Getting information on internals        .... done
Copying old internal coords+grads       .... done
Making the new internal coordinates     .... (2022 redundants) done
Validating the new internal coordinates .... (2022 redundants) done
Calculating the B-matrix                .... done
Calculating the G,G- and P matrices     .... done
Transforming gradient to internals      .... done
Projecting the internal gradient        .... done
Number of atoms                         ....  35
Number of internal coordinates          .... 206
Current Energy                          ....  -874.204529742 Eh
Current gradient norm                   ....     0.001645468 Eh/bohr
Maximum allowed component of the step   ....  0.300
Current trust radius                    ....  0.700
Updating the Hessian (BFGS)             .... done
Forming the augmented Hessian           .... done
Diagonalizing the augmented Hessian     .... done
Last element of RFO vector              ....  0.999223787
Lowest eigenvalues of augmented Hessian:
 -0.000011679  0.005237990  0.010208279  0.020989630  0.021959399
Length of the computed step             ....  0.039423800
The final length of the internal step   ....  0.039423800
Converting the step to Cartesian space:
 Initial RMS(Int)=    0.0027467863
Transforming coordinates:
 Iter   0:  RMS(Cart)=    0.0157044832 RMS(Int)=    0.6189896273
done
Storing new coordinates                 .... done
The predicted energy change is          ....    -0.000005848
Previously predicted energy change      ....    -0.000006463
Actually observed energy change         ....    -0.000011660
Ratio of predicted to observed change   ....     1.804031715
New trust radius                        ....     0.466666667

                                .--------------------.
          ----------------------|Geometry convergence|-------------------------
          Item                value                   Tolerance       Converged
          ---------------------------------------------------------------------
          Energy change      -0.0000116598            0.0000050000      NO
          RMS gradient        0.0000702539            0.0001000000      YES
          MAX gradient        0.0002896721            0.0003000000      YES
          RMS step            0.0027467863            0.0020000000      NO
          MAX step            0.0188063614            0.0040000000      NO
          -------------------------------------------------------------------------
          ........................................................
          Max(Bonds)      0.0005      Max(Angles)    0.13
          Max(Dihed)        1.08      Max(Improp)    0.00
          ---------------------------------------------------------------------

The optimization has not yet converged - more geometry cycles are needed


    ---------------------------------------------------------------------------
                         Redundant Internal Coordinates
                            (Angstroem and degrees)

        Definition                    Value    dE/dq     Step     New-Value
    ----------------------------------------------------------------------------
     1. B(C   1,C   0)                1.4131 -0.000042 -0.0001    1.4130   
     2. B(C   2,C   1)                1.3967 -0.000048  0.0001    1.3968   
     3. B(C   3,C   2)                1.3988 -0.000039  0.0000    1.3988   
     4. B(N   4,C   3)                1.3787 -0.000050 -0.0001    1.3787   
     5. B(C   5,N   4)                1.3783 -0.000088  0.0002    1.3785   
     6. B(C   6,C   5)                1.4680  0.000159 -0.0003    1.4677   
     7. B(C   7,C   6)                1.4207 -0.000024 -0.0000    1.4207   
     8. B(C   8,C   7)                1.3916  0.000014 -0.0000    1.3916   
     9. B(C   9,C   8)                1.3990 -0.000072  0.0001    1.3991   
    10. B(N  10,C   9)                1.3777 -0.000290  0.0002    1.3779   
    11. B(C  11,N  10)                1.3802  0.000185 -0.0001    1.3801   
    12. B(C  12,C  11)                1.4728  0.000282 -0.0002    1.4726   
    13. B(C  13,C  12)                1.5194  0.000200 -0.0004    1.5190   
    14. B(C  14,C  13)                1.4967 -0.000188  0.0002    1.4969   
    15. B(C  14,C  12)                1.5198  0.000146 -0.0001    1.5197   
    16. B(N  15,C  11)                1.3204 -0.000157  0.0000    1.3204   
    17. B(C  16,N  15)                1.3863 -0.000009 -0.0001    1.3862   
    18. B(C  16,C   9)                1.4218  0.000161 -0.0004    1.4215   
    19. B(C  17,C  16)                1.3991 -0.000110  0.0001    1.3992   
    20. B(C  17,C   6)                1.4044 -0.000024  0.0001    1.4045   
    21. B(N  18,C   5)                1.3247 -0.000247  0.0003    1.3250   
    22. B(C  19,N  18)                1.3818  0.000099 -0.0003    1.3816   
    23. B(C  19,C   3)                1.4237  0.000183 -0.0005    1.4232   
    24. B(C  20,C  19)                1.4053 -0.000076  0.0000    1.4053   
    25. B(C  20,C   0)                1.3951 -0.000030  0.0001    1.3952   
    26. B(H  21,C   0)                1.0931 -0.000010 -0.0000    1.0931   
    27. B(H  22,C   1)                1.0930 -0.000022  0.0000    1.0930   
    28. B(H  23,C   2)                1.0922 -0.000008 -0.0000    1.0922   
    29. B(H  24,N   4)                1.0137 -0.000001 -0.0000    1.0137   
    30. B(H  25,C   7)                1.0906 -0.000006  0.0000    1.0906   
    31. B(H  26,C   8)                1.0919 -0.000001 -0.0000    1.0919   
    32. B(H  27,N  10)                1.0148 -0.000003 -0.0000    1.0148   
    33. B(H  28,C  12)                1.0921  0.000008 -0.0000    1.0920   
    34. B(H  29,C  13)                1.0934 -0.000026 -0.0000    1.0934   
    35. B(H  30,C  13)                1.0942 -0.000023 -0.0000    1.0942   
    36. B(H  31,C  14)                1.0942 -0.000023 -0.0000    1.0942   
    37. B(H  32,C  14)                1.0935 -0.000021 -0.0000    1.0935   
    38. B(H  33,C  17)                1.0917 -0.000040  0.0001    1.0918   
    39. B(H  34,C  20)                1.0926 -0.000023  0.0000    1.0927   
    40. A(C   1,C   0,H  21)          119.05 -0.000051   -0.01    119.04   
    41. A(C  20,C   0,H  21)          119.50  0.000004    0.02    119.53   
    42. A(C   1,C   0,C  20)          121.44  0.000047   -0.01    121.43   
    43. A(C   0,C   1,H  22)          119.25  0.000017   -0.01    119.24   
    44. A(C   2,C   1,H  22)          119.27  0.000037    0.00    119.27   
    45. A(C   0,C   1,C   2)          121.48 -0.000055    0.01    121.48   
    46. A(C   3,C   2,H  23)          121.57 -0.000045   -0.01    121.57   
    47. A(C   1,C   2,H  23)          121.55 -0.000046    0.02    121.58   
    48. A(C   1,C   2,C   3)          116.87  0.000091   -0.01    116.86   
    49. A(C   2,C   3,C  19)          122.43 -0.000082    0.02    122.45   
    50. A(N   4,C   3,C  19)          104.66 -0.000065    0.01    104.66   
    51. A(C   2,C   3,N   4)          132.91  0.000146   -0.02    132.89   
    52. A(C   3,N   4,H  24)          125.56  0.000000   -0.03    125.54   
    53. A(C   5,N   4,H  24)          126.63 -0.000057    0.02    126.65   
    54. A(C   3,N   4,C   5)          107.81  0.000057   -0.00    107.81   
    55. A(C   6,C   5,N  18)          124.92  0.000000    0.00    124.92   
    56. A(N   4,C   5,C   6)          123.24 -0.000058    0.02    123.26   
    57. A(N   4,C   5,N  18)          111.84  0.000058   -0.03    111.82   
    58. A(C   5,C   6,C   7)          118.28  0.000015   -0.01    118.27   
    59. A(C   7,C   6,C  17)          120.23  0.000012   -0.00    120.23   
    60. A(C   5,C   6,C  17)          121.48 -0.000027    0.02    121.50   
    61. A(C   8,C   7,H  25)          120.11  0.000102    0.03    120.14   
    62. A(C   6,C   7,H  25)          117.95 -0.000010   -0.05    117.90   
    63. A(C   6,C   7,C   8)          121.95 -0.000092    0.01    121.96   
    64. A(C   7,C   8,H  26)          121.17 -0.000102    0.04    121.22   
    65. A(C   7,C   8,C   9)          117.16  0.000155   -0.03    117.14   
    66. A(C   9,C   8,H  26)          121.67 -0.000053   -0.02    121.65   
    67. A(N  10,C   9,C  16)          104.72 -0.000027    0.01    104.73   
    68. A(C   8,C   9,C  16)          122.05 -0.000143    0.03    122.08   
    69. A(C   8,C   9,N  10)          133.22  0.000170   -0.03    133.19   
    70. A(C  11,N  10,H  27)          126.72 -0.000041    0.05    126.77   
    71. A(C   9,N  10,H  27)          125.65 -0.000047   -0.03    125.61   
    72. A(C   9,N  10,C  11)          107.63  0.000088   -0.02    107.62   
    73. A(N  10,C  11,C  12)          123.70 -0.000086    0.03    123.72   
    74. A(C  12,C  11,N  15)          124.15  0.000164   -0.03    124.12   
    75. A(N  10,C  11,N  15)          112.16 -0.000078    0.00    112.16   
    76. A(C  13,C  12,C  14)           59.01 -0.000143    0.02     59.03   
    77. A(C  14,C  12,H  28)          117.18  0.000102   -0.10    117.08   
    78. A(C  13,C  12,H  28)          117.28  0.000081   -0.07    117.21   
    79. A(C  11,C  12,H  28)          111.56 -0.000201    0.07    111.64   
    80. A(C  11,C  12,C  13)          121.37  0.000116    0.03    121.41   
    81. A(C  11,C  12,C  14)          121.34  0.000123    0.00    121.34   
    82. A(C  12,C  13,C  14)           60.51  0.000055    0.00     60.51   
    83. A(C  14,C  13,H  30)          118.45  0.000087   -0.10    118.35   
    84. A(C  12,C  13,H  30)          117.42 -0.000017   -0.00    117.42   
    85. A(C  14,C  13,H  29)          118.64 -0.000035    0.04    118.69   
    86. A(C  12,C  13,H  29)          116.69 -0.000041   -0.01    116.67   
    87. A(H  29,C  13,H  30)          114.58 -0.000021    0.05    114.63   
    88. A(C  12,C  14,H  32)          116.64 -0.000050    0.01    116.65   
    89. A(C  13,C  14,H  31)          118.54  0.000062   -0.13    118.42   
    90. A(C  12,C  14,H  31)          117.46 -0.000005   -0.03    117.42   
    91. A(C  12,C  14,C  13)           60.48  0.000088   -0.02     60.46   
    92. A(H  31,C  14,H  32)          114.56 -0.000003    0.07    114.62   
    93. A(C  13,C  14,H  32)          118.61 -0.000061    0.05    118.67   
    94. A(C  11,N  15,C  16)          105.71  0.000057   -0.00    105.71   
    95. A(N  15,C  16,C  17)          130.20  0.000019   -0.01    130.20   
    96. A(C   9,C  16,C  17)          120.02  0.000021   -0.00    120.02   
    97. A(C   9,C  16,N  15)          109.78 -0.000040    0.01    109.78   
    98. A(C   6,C  17,C  16)          118.58  0.000047   -0.01    118.57   
    99. A(C  16,C  17,H  33)          119.20 -0.000055    0.06    119.26   
   100. A(C   6,C  17,H  33)          122.21  0.000008   -0.05    122.17   
   101. A(C   5,N  18,C  19)          105.97  0.000044   -0.00    105.97   
   102. A(N  18,C  19,C  20)          130.59  0.000112   -0.03    130.57   
   103. A(C   3,C  19,C  20)          119.69 -0.000018    0.00    119.69   
   104. A(C   3,C  19,N  18)          109.72 -0.000094    0.02    109.74   
   105. A(C   0,C  20,C  19)          118.09  0.000017    0.00    118.09   
   106. A(C  19,C  20,H  34)          120.43 -0.000016    0.00    120.43   
   107. A(C   0,C  20,H  34)          121.48 -0.000001   -0.00    121.48   
   108. D(H  22,C   1,C   0,C  20)    180.00  0.000001   -0.01    179.99   
   109. D(C   2,C   1,C   0,C  20)     -0.03 -0.000001    0.00     -0.03   
   110. D(H  22,C   1,C   0,H  21)      0.00  0.000002   -0.01     -0.01   
   111. D(C   2,C   1,C   0,H  21)    179.98 -0.000000   -0.00    179.98   
   112. D(C   3,C   2,C   1,H  22)    179.97 -0.000001    0.01    179.97   
   113. D(H  23,C   2,C   1,H  22)      0.00 -0.000000    0.00      0.00   
   114. D(H  23,C   2,C   1,C   0)   -179.97  0.000002   -0.01   -179.98   
   115. D(C   3,C   2,C   1,C   0)     -0.01  0.000001   -0.00     -0.01   
   116. D(C  19,C   3,C   2,H  23)   -179.95 -0.000002    0.02   -179.94   
   117. D(C  19,C   3,C   2,C   1)      0.08 -0.000001    0.01      0.09   
   118. D(N   4,C   3,C   2,H  23)     -0.04 -0.000002    0.01     -0.03   
   119. D(N   4,C   3,C   2,C   1)    179.99 -0.000001    0.01    179.99   
   120. D(H  24,N   4,C   3,C   2)     -0.69  0.000051   -0.29     -0.98   
   121. D(H  24,N   4,C   3,C  19)    179.23  0.000051   -0.29    178.94   
   122. D(C   5,N   4,C   3,C   2)   -179.91 -0.000000    0.01   -179.90   
   123. D(C   5,N   4,C   3,C  19)      0.01 -0.000000    0.01      0.02   
   124. D(N  18,C   5,N   4,H  24)   -179.19 -0.000050    0.29   -178.90   
   125. D(N  18,C   5,N   4,C   3)      0.03  0.000003   -0.02      0.01   
   126. D(C   6,C   5,N   4,H  24)      0.70 -0.000052    0.30      1.00   
   127. D(C   6,C   5,N   4,C   3)    179.92  0.000001   -0.01    179.91   
   128. D(C  17,C   6,C   5,N   4)      3.41 -0.000089    1.06      4.47   
   129. D(C   7,C   6,C   5,N  18)      3.29 -0.000081    1.00      4.29   
   130. D(C  17,C   6,C   5,N  18)   -176.71 -0.000091    1.08   -175.64   
   131. D(C   7,C   6,C   5,N   4)   -176.59 -0.000079    0.99   -175.60   
   132. D(H  25,C   7,C   6,C  17)    179.80 -0.000001   -0.01    179.79   
   133. D(H  25,C   7,C   6,C   5)     -0.20 -0.000011    0.06     -0.14   
   134. D(C   8,C   7,C   6,C  17)     -0.30 -0.000005    0.02     -0.28   
   135. D(C   8,C   7,C   6,C   5)    179.70 -0.000016    0.09    179.79   
   136. D(C   9,C   8,C   7,H  25)    179.98 -0.000001    0.01    179.99   
   137. D(C   9,C   8,C   7,C   6)      0.09  0.000004   -0.02      0.07   
   138. D(H  26,C   8,C   7,C   6)   -179.89  0.000002   -0.01   -179.90   
   139. D(H  26,C   8,C   7,H  25)      0.01 -0.000003    0.02      0.03   
   140. D(C  16,C   9,C   8,H  26)   -179.87  0.000004   -0.01   -179.89   
   141. D(C  16,C   9,C   8,C   7)      0.15  0.000001   -0.01      0.15   
   142. D(N  10,C   9,C   8,H  26)      0.01  0.000016   -0.08     -0.07   
   143. D(N  10,C   9,C   8,C   7)   -179.96  0.000013   -0.07   -180.03   
   144. D(H  27,N  10,C   9,C  16)    179.98  0.000004   -0.02    179.97   
   145. D(H  27,N  10,C   9,C   8)      0.08 -0.000006    0.04      0.12   
   146. D(C  11,N  10,C   9,C  16)      0.06  0.000002   -0.00      0.06   
   147. D(C  11,N  10,C   9,C   8)   -179.84 -0.000008    0.06   -179.79   
   148. D(N  15,C  11,N  10,H  27)   -179.93 -0.000002    0.01   -179.91   
   149. D(N  15,C  11,N  10,C   9)     -0.00 -0.000000   -0.00     -0.01   
   150. D(C  12,C  11,N  10,H  27)      0.13  0.000004   -0.00      0.13   
   151. D(C  12,C  11,N  10,C   9)   -179.94  0.000006   -0.02   -179.97   
   152. D(H  28,C  12,C  11,N  10)   -178.83  0.000012    0.14   -178.69   
   153. D(C  14,C  12,C  11,N  15)   -143.41 -0.000045    0.18   -143.23   
   154. D(C  14,C  12,C  11,N  10)     36.52 -0.000053    0.20     36.72   
   155. D(C  13,C  12,C  11,N  15)    146.15  0.000031    0.14    146.29   
   156. D(C  13,C  12,C  11,N  10)    -33.91  0.000023    0.16    -33.75   
   157. D(H  29,C  13,C  12,H  28)      2.56 -0.000042    0.13      2.69   
   158. D(H  29,C  13,C  12,C  14)    109.40 -0.000006    0.06    109.46   
   159. D(H  29,C  13,C  12,C  11)   -140.47  0.000036    0.06   -140.41   
   160. D(C  14,C  13,C  12,H  28)   -106.84 -0.000036    0.08   -106.76   
   161. D(H  30,C  13,C  12,C  11)      1.28 -0.000089    0.12      1.40   
   162. D(C  14,C  13,C  12,C  11)    110.14  0.000043   -0.00    110.13   
   163. D(C  12,C  14,C  13,H  29)   -106.20  0.000013    0.04   -106.16   
   164. D(H  32,C  14,C  12,C  11)    140.43 -0.000010   -0.10    140.33   
   165. D(H  31,C  14,C  12,H  28)   -144.04  0.000107   -0.18   -144.22   
   166. D(H  31,C  14,C  12,C  13)    108.94  0.000108   -0.15    108.79   
   167. D(H  31,C  14,C  12,C  11)     -1.26  0.000076   -0.19     -1.45   
   168. D(C  13,C  14,C  12,H  28)    107.02 -0.000001   -0.04    106.98   
   169. D(C  12,C  14,C  13,H  30)    107.18 -0.000037    0.04    107.22   
   170. D(C  13,C  14,C  12,C  11)   -110.20 -0.000032   -0.05   -110.25   
   171. D(H  32,C  14,C  13,C  12)    106.15  0.000001   -0.02    106.13   
   172. D(H  31,C  14,C  13,H  30)      0.01 -0.000039    0.03      0.04   
   173. D(H  31,C  14,C  13,H  29)    146.63  0.000010    0.03    146.66   
   174. D(H  31,C  14,C  13,C  12)   -107.17 -0.000003   -0.01   -107.18   
   175. D(C  16,N  15,C  11,C  12)    179.89 -0.000009    0.02    179.91   
   176. D(C  16,N  15,C  11,N  10)     -0.05 -0.000002    0.01     -0.05   
   177. D(C  17,C  16,N  15,C  11)   -179.90  0.000017   -0.09   -179.99   
   178. D(C   9,C  16,N  15,C  11)      0.09  0.000003   -0.01      0.08   
   179. D(C  17,C  16,C   9,N  10)    179.90 -0.000015    0.08    179.98   
   180. D(C  17,C  16,C   9,C   8)     -0.18 -0.000006    0.03     -0.16   
   181. D(N  15,C  16,C   9,N  10)     -0.09 -0.000003    0.01     -0.09   
   182. D(N  15,C  16,C   9,C   8)    179.82  0.000006   -0.04    179.78   
   183. D(H  33,C  17,C  16,N  15)     -0.33 -0.000001   -0.02     -0.35   
   184. D(H  33,C  17,C  16,C   9)    179.68  0.000014   -0.11    179.57   
   185. D(C   6,C  17,C  16,N  15)    179.96 -0.000010    0.06    180.02   
   186. D(C   6,C  17,C  16,C   9)     -0.03  0.000005   -0.02     -0.05   
   187. D(H  33,C  17,C   6,C   7)   -179.44 -0.000008    0.09   -179.35   
   188. D(H  33,C  17,C   6,C   5)      0.57  0.000002    0.02      0.58   
   189. D(C  16,C  17,C   6,C   7)      0.26  0.000001    0.00      0.27   
   190. D(C  16,C  17,C   6,C   5)   -179.73  0.000011   -0.07   -179.80   
   191. D(C  19,N  18,C   5,C   6)   -179.94 -0.000002    0.01   -179.93   
   192. D(C  19,N  18,C   5,N   4)     -0.05 -0.000004    0.02     -0.03   
   193. D(C  20,C  19,N  18,C   5)   -179.93  0.000000    0.00   -179.93   
   194. D(C   3,C  19,N  18,C   5)      0.05  0.000004   -0.02      0.04   
   195. D(C  20,C  19,C   3,N   4)    179.95  0.000001   -0.01    179.94   
   196. D(C  20,C  19,C   3,C   2)     -0.12  0.000001   -0.02     -0.14   
   197. D(N  18,C  19,C   3,N   4)     -0.04 -0.000002    0.00     -0.03   
   198. D(N  18,C  19,C   3,C   2)    179.89 -0.000002   -0.00    179.89   
   199. D(H  34,C  20,C  19,N  18)      0.03  0.000002   -0.01      0.02   
   200. D(H  34,C  20,C  19,C   3)   -179.95 -0.000001    0.01   -179.94   
   201. D(C   0,C  20,C  19,N  18)   -179.93  0.000002   -0.01   -179.94   
   202. D(C   0,C  20,C  19,C   3)      0.08 -0.000001    0.01      0.09   
   203. D(H  34,C  20,C   0,H  21)      0.02  0.000000   -0.00      0.02   
   204. D(H  34,C  20,C   0,C   1)   -179.98  0.000001   -0.00   -179.98   
   205. D(C  19,C  20,C   0,H  21)    179.98  0.000000   -0.00    179.98   
   206. D(C  19,C  20,C   0,C   1)     -0.01  0.000001   -0.00     -0.02   
    ----------------------------------------------------------------------------

Geometry step timings:
Preparation and reading OPT file:      0.000 s ( 0.000 %)
Internal coordinates            :      0.000 s ( 0.000 %)
B/P matrices and projection     :      0.003 s ( 6.818 %)
Hessian update/contruction      :      0.035 s (79.545 %)
Making the step                 :      0.003 s ( 6.818 %)
Converting the step to Cartesian:      0.000 s ( 0.000 %)
Storing new data                :      0.000 s ( 0.000 %)
Checking convergence            :      0.000 s ( 0.000 %)
Final printing                  :      0.003 s ( 6.818 %)
Total time                      :      0.044 s

Time for energy+gradient        :    242.158 s
Time for complete geometry iter :    242.323 s

         *************************************************************
         *                GEOMETRY OPTIMIZATION CYCLE   7            *
         *************************************************************
---------------------------------
CARTESIAN COORDINATES (ANGSTROEM)
---------------------------------
  C     -6.593496   -0.177799   -0.600721
  C     -6.469307    0.696726    0.502167
  C     -5.219254    1.052303    1.014109
  C     -4.098374    0.501870    0.383781
  N     -2.743129    0.622294    0.606446
  C     -2.091617   -0.150407   -0.330984
  C     -0.630264   -0.266533   -0.403342
  C     -0.066849   -1.016176   -1.470547
  C      1.308306   -1.172247   -1.615520
  C      2.124570   -0.557875   -0.659646
  N      3.489875   -0.496937   -0.484415
  C      3.732625    0.255101    0.646987
  C      5.081407    0.546114    1.161395
  C      6.212908   -0.458611    1.028901
  C      6.247806    0.801263    0.221283
  N      2.617152    0.681512    1.210436
  C      1.587610    0.193943    0.420639
  C      0.202244    0.340729    0.550972
  N     -2.942212   -0.760659   -1.143274
  C     -4.203786   -0.379133   -0.728955
  C     -5.472164   -0.723531   -1.226372
  H     -7.591583   -0.429592   -0.968609
  H     -7.371922    1.103808    0.965101
  H     -5.121533    1.727926    1.866708
  H     -2.312496    1.194614    1.323820
  H     -0.748566   -1.474299   -2.188018
  H      1.728333   -1.749760   -2.441575
  H      4.182716   -0.931964   -1.084825
  H      5.043610    1.137522    2.078662
  H      6.888112   -0.552988    1.883728
  H      5.993792   -1.399348    0.514890
  H      6.052423    0.736429   -0.853359
  H      6.947269    1.590452    0.510387
  H     -0.197064    0.914876    1.389407
  H     -5.567239   -1.399623   -2.079457

----------------------------
CARTESIAN COORDINATES (A.U.)
----------------------------
  NO LB      ZA    FRAG     MASS         X           Y           Z
   0 C     6.0000    0    12.011  -12.459902   -0.335992   -1.135199
   1 C     6.0000    0    12.011  -12.225219    1.316622    0.948959
   2 C     6.0000    0    12.011   -9.862961    1.988565    1.916389
   3 C     6.0000    0    12.011   -7.744804    0.948397    0.725242
   4 N     7.0000    0    14.007   -5.183763    1.175965    1.146016
   5 C     6.0000    0    12.011   -3.952584   -0.284227   -0.625468
   6 C     6.0000    0    12.011   -1.191026   -0.503674   -0.762206
   7 C     6.0000    0    12.011   -0.126327   -1.920295   -2.778932
   8 C     6.0000    0    12.011    2.472340   -2.215226   -3.052890
   9 C     6.0000    0    12.011    4.014855   -1.054230   -1.246550
  10 N     7.0000    0    14.007    6.594907   -0.939074   -0.915412
  11 C     6.0000    0    12.011    7.053638    0.482071    1.222628
  12 C     6.0000    0    12.011    9.602467    1.032006    2.194718
  13 C     6.0000    0    12.011   11.740694   -0.866648    1.944341
  14 C     6.0000    0    12.011   11.806643    1.514167    0.418165
  15 N     7.0000    0    14.007    4.945701    1.287871    2.287393
  16 C     6.0000    0    12.011    3.000148    0.366499    0.794892
  17 C     6.0000    0    12.011    0.382186    0.643884    1.041185
  18 N     7.0000    0    14.007   -5.559975   -1.437438   -2.160474
  19 C     6.0000    0    12.011   -7.944005   -0.716458   -1.377526
  20 C     6.0000    0    12.011  -10.340892   -1.367276   -2.317508
  21 H     1.0000    0     1.008  -14.346013   -0.811812   -1.830406
  22 H     1.0000    0     1.008  -13.930914    2.085895    1.823777
  23 H     1.0000    0     1.008   -9.678294    3.265307    3.527567
  24 H     1.0000    0     1.008   -4.369984    2.257494    2.501656
  25 H     1.0000    0     1.008   -1.414584   -2.786022   -4.134754
  26 H     1.0000    0     1.008    3.266077   -3.306566   -4.613908
  27 H     1.0000    0     1.008    7.904188   -1.761156   -2.050021
  28 H     1.0000    0     1.008    9.531041    2.149605    3.928103
  29 H     1.0000    0     1.008   13.016645   -1.044997    3.559729
  30 H     1.0000    0     1.008   11.326625   -2.644384    0.973002
  31 H     1.0000    0     1.008   11.437422    1.391649   -1.612614
  32 H     1.0000    0     1.008   13.128435    3.005518    0.964492
  33 H     1.0000    0     1.008   -0.372398    1.728864    2.625598
  34 H     1.0000    0     1.008  -10.520558   -2.644904   -3.929605

--------------------------------
INTERNAL COORDINATES (ANGSTROEM)
--------------------------------
 C      0   0   0     0.000000000000     0.00000000     0.00000000
 C      1   0   0     1.413004447989     0.00000000     0.00000000
 C      2   1   0     1.396836340946   121.48449320     0.00000000
 C      3   2   1     1.398807444959   116.85835064     0.00000000
 N      4   3   2     1.378684136138   132.88586576   179.99420866
 C      5   4   3     1.378516418423   107.80599165   180.10189047
 C      6   5   4     1.467744678705   123.25959687   179.90886376
 C      7   6   5     1.420678993772   118.27054452   184.40403993
 C      8   7   6     1.391555864105   121.96137218   179.78534396
 C      9   8   7     1.399083912310   117.13724301     0.07228194
 N     10   9   8     1.377851915638   133.19035131   179.96781133
 C     11  10   9     1.380057713640   107.61740539   180.21288525
 C     12  11  10     1.472588573977   123.72321475   180.03453824
 C     13  12  11     1.518986887726   121.40565011   326.24720842
 C     14  13  12     1.496911769558    60.50965845   110.13485361
 N     12  11  10     1.320446809290   112.16085550     0.00000000
 C     16  12  11     1.386167380672   105.70695744   359.95343813
 C     17  16  12     1.399204042631   130.19623006   180.01196485
 N      6   5   4     1.325041565296   111.81679923     0.00000000
 C     19   6   5     1.381590350115   105.97117926   359.97354887
 C      1   2   3     1.395223334253   121.42979452   359.97333738
 H      1   2   3     1.093123123612   119.04491558   179.97726464
 H      2   1   3     1.093040093958   119.24199562   180.01511546
 H      3   2   1     1.092218152969   121.57596813   180.01758961
 H      5   4   3     1.013716555868   125.53427542   359.02358502
 H      8   7   6     1.090586040145   117.90128830   359.86211555
 H      9   8   7     1.091929638681   121.21582611   180.10479771
 H     11  10   9     1.014775567451   125.61461724     0.12257574
 H     13  12  11     1.092049590691   111.63759978   181.30737571
 H     14  13  12     1.093405666461   116.67293641   219.59035143
 H     14  13  12     1.094168664209   117.41903490     1.40132589
 H     15  14  13     1.094181423700   118.41501704   252.82257221
 H     15  14  13     1.093456767529   118.66684002   106.13166466
 H     18  17  16     1.091817436861   119.26230062   359.64651628
 H     21   1   2     1.092653908054   121.47973508   180.01899722

---------------------------
INTERNAL COORDINATES (A.U.)
---------------------------
 C      0   0   0     0.000000000000     0.00000000     0.00000000
 C      1   0   0     2.670191432713     0.00000000     0.00000000
 C      2   1   0     2.639638138297   121.48449320     0.00000000
 C      3   2   1     2.643362985062   116.85835064     0.00000000
 N      4   3   2     2.605335442483   132.88586576   179.99420866
 C      5   4   3     2.605018501933   107.80599165   180.10189047
 C      6   5   4     2.773635477273   123.25959687   179.90886376
 C      7   6   5     2.684694222444   118.27054452   184.40403993
 C      8   7   6     2.629659483211   121.96137218   179.78534396
 C      9   8   7     2.643885432641   117.13724301     0.07228194
 N     10   9   8     2.603762773654   133.19035131   179.96781133
 C     11  10   9     2.607931127785   107.61740539   180.21288525
 C     12  11  10     2.782789112759   123.72321475   180.03453824
 C     13  12  11     2.870469218819   121.40565011   326.24720842
 C     14  13  12     2.828753291108    60.50965845   110.13485361
 N     12  11  10     2.495282843968   112.16085550     0.00000000
 C     16  12  11     2.619476725245   105.70695744   359.95343813
 C     17  16  12     2.644112446048   130.19623006   180.01196485
 N      6   5   4     2.503965674472   111.81679923     0.00000000
 C     19   6   5     2.610827390985   105.97117926   359.97354887
 C      1   2   3     2.636589997395   121.42979452   359.97333738
 H      1   2   3     2.065703334283   119.04491558   179.97726464
 H      2   1   3     2.065546430977   119.24199562   180.01511546
 H      3   2   1     2.063993187608   121.57596813   180.01758961
 H      5   4   3     1.915646668012   125.53427542   359.02358502
 H      8   7   6     2.060908941352   117.90128830   359.86211555
 H      9   8   7     2.063447974619   121.21582611   180.10479771
 H     11  10   9     1.917647909876   125.61461724     0.12257574
 H     13  12  11     2.063674651067   111.63759978   181.30737571
 H     14  13  12     2.066237262889   116.67293641   219.59035143
 H     14  13  12     2.067679119673   117.41903490     1.40132589
 H     15  14  13     2.067703231617   118.41501704   252.82257221
 H     15  14  13     2.066333829912   118.66684002   106.13166466
 H     18  17  16     2.063235943906   119.26230062   359.64651628
 H     21   1   2     2.064816645381   121.47973508   180.01899722

------------------------------------------------------------------------------
                   ___                                                        
                  /   \      - P O W E R E D   B Y -                         
                 /     \                                                     
                 |  |  |   _    _      __       _____    __    __             
                 |  |  |  | |  | |    /  \     |  _  \  |  |  /  |          
                  \  \/   | |  | |   /    \    | | | |  |  | /  /          
                 / \  \   | |__| |  /  /\  \   | |_| |  |  |/  /          
                |  |  |   |  __  | /  /__\  \  |    /   |      \           
                |  |  |   | |  | | |   __   |  |    \   |  |\   \          
                \     /   | |  | | |  |  |  |  | |\  \  |  | \   \       
                 \___/    |_|  |_| |__|  |__|  |_| \__\ |__|  \__/        
                                                                              
                      - O R C A' S   B I G   F R I E N D -                    
                                      &                                       
                       - I N T E G R A L  F E E D E R -                       
                                                                              
 v1 FN, 2020, v2 2021, v3 2022-2024                                           
------------------------------------------------------------------------------


----------------------
SHARK INTEGRAL PACKAGE
----------------------

Number of atoms                             ...     35
Number of basis functions                   ...    364
Number of shells                            ...    168
Maximum angular momentum                    ...      2
Integral batch strategy                     ... SHARK/LIBINT Hybrid
RI-J (if used) integral strategy            ... SPLIT-RIJ (Revised 2003 algorithm where possible)
Printlevel                                  ...      1
Contraction scheme used                     ... SEGMENTED contraction
Prescreening option                         ... SCHWARTZ
   Thresh                                   ... 2.500e-11
   Tcut                                     ... 2.500e-12
   Tpresel                                  ... 2.500e-12 
Coulomb Range Separation                    ... NOT USED
Exchange Range Separation                   ... NOT USED
Multipole approximations                    ... NOT USED
Finite Nucleus Model                        ... NOT USED
CABS basis                                  ... NOT available
Auxiliary Coulomb fitting basis             ... AVAILABLE
   # of basis functions in Aux-J            ...   1183
   # of shells in Aux-J                     ...    385
   Maximum angular momentum in Aux-J        ...      4
Auxiliary J/K fitting basis                 ... NOT available
Auxiliary Correlation fitting basis         ... NOT available
Auxiliary 'external' fitting basis          ... NOT available

Checking pre-screening integrals            ... done (  0.0 sec) Dimension = 168
   => SHARK Basis and OBASIS are compatible. Storing Pre-screening
Shell pair information
Shell pair cut-off parameter TPreSel        ...   2.5e-12
Total number of shell pairs                 ...     14196
Shell pairs after pre-screening             ...      9243
Total number of primitive shell pairs       ...     52318
Primitive shell pairs kept                  ...     22453
          la=0 lb=0:   2749 shell pairs
          la=1 lb=0:   3403 shell pairs
          la=1 lb=1:   1092 shell pairs
          la=2 lb=0:   1139 shell pairs
          la=2 lb=1:    729 shell pairs
          la=2 lb=2:    131 shell pairs

Checking whether 4 symmetric matrices of dimension 364 fit in memory
:Max Core in MB      =   2000.00
 MB in use           =     13.66
 MB left             =   1986.34
 MB needed           =      2.03
 Data fit in memory  = YES
Calculating RI/J V-Matrix + Cholesky decomp.... done (  0.1 sec)
Calculating Nuclear repulsion               ... done (  0.0 sec) ENN=   1447.010888103485 Eh

Diagonalization of the overlap matrix:
Smallest eigenvalue                        ... 2.369e-04
Time for diagonalization                   ...    0.012 sec
Threshold for overlap eigenvalues          ... 1.000e-07
Number of eigenvalues below threshold      ... 0
Time for construction of square roots      ...    0.007 sec
Total time needed                          ...    0.020 sec

-------------------
DFT GRID GENERATION
-------------------

General Integration Accuracy     IntAcc      ... 4.388
Radial Grid Type                 RadialGrid  ... OptM3 with GC (2021)
Angular Grid (max. ang.)         AngularGrid ... 4 (Lebedev-302)
Angular grid pruning method      GridPruning ... 4 (adaptive)
Weight generation scheme         WeightScheme... mBecke (2022)
Basis function cutoff            BFCut       ... 1.0000e-11
Integration weight cutoff        WCut        ... 1.0000e-14
Partially contracted basis set               ... off
Rotationally invariant grid construction     ... off
Angular grids for H and He will be reduced by one unit

Total number of grid points                  ...   170609
Total number of batches                      ...     2685
Average number of points per batch           ...       63
Average number of grid points per atom       ...     4875

--------------------
COSX GRID GENERATION
--------------------

GRIDX 1
-------
General Integration Accuracy     IntAcc      ... 3.816
Radial Grid Type                 RadialGrid  ... OptM3 with GC (2021)
Angular Grid (max. ang.)         AngularGrid ... 1 (Lebedev-50)
Angular grid pruning method      GridPruning ... 4 (adaptive)
Weight generation scheme         WeightScheme... mBecke (2022)
Basis function cutoff            BFCut       ... 1.0000e-11
Integration weight cutoff        WCut        ... 1.0000e-14
Partially contracted basis set               ... on
Rotationally invariant grid construction     ... off
Angular grids for H and He will be reduced by one unit

Total number of grid points                  ...    21668
Total number of batches                      ...      190
Average number of points per batch           ...      114
Average number of grid points per atom       ...      619
UseSFitting                                  ... on

GRIDX 2
-------
General Integration Accuracy     IntAcc      ... 4.020
Radial Grid Type                 RadialGrid  ... OptM3 with GC (2021)
Angular Grid (max. ang.)         AngularGrid ... 2 (Lebedev-110)
Angular grid pruning method      GridPruning ... 4 (adaptive)
Weight generation scheme         WeightScheme... mBecke (2022)
Basis function cutoff            BFCut       ... 1.0000e-11
Integration weight cutoff        WCut        ... 1.0000e-14
Partially contracted basis set               ... on
Rotationally invariant grid construction     ... off
Angular grids for H and He will be reduced by one unit

Total number of grid points                  ...    47670
Total number of batches                      ...      391
Average number of points per batch           ...      121
Average number of grid points per atom       ...     1362
UseSFitting                                  ... on

GRIDX 3
-------
General Integration Accuracy     IntAcc      ... 4.338
Radial Grid Type                 RadialGrid  ... OptM3 with GC (2021)
Angular Grid (max. ang.)         AngularGrid ... 3 (Lebedev-194)
Angular grid pruning method      GridPruning ... 4 (adaptive)
Weight generation scheme         WeightScheme... mBecke (2022)
Basis function cutoff            BFCut       ... 1.0000e-11
Integration weight cutoff        WCut        ... 1.0000e-14
Partially contracted basis set               ... on
Rotationally invariant grid construction     ... off
Angular grids for H and He will be reduced by one unit

Total number of grid points                  ...   104538
Total number of batches                      ...      835
Average number of points per batch           ...      125
Average number of grid points per atom       ...     2987
UseSFitting                                  ... on
Grids setup in   4.0 sec
Initializing property integral containers    ... done (  0.0 sec)

SHARK setup successfully completed in   4.3 seconds

Maximum memory used throughout the entire STARTUP-calculation: 70.6 MB
Occupation numbers will be reassigned to an Aufbau configuration
             **** ENERGY FILE WAS UPDATED (C:\Users\jabreumiranda\Radioprotection_Pipeline_Project\06_Quantum_DFT_ORCA\CHEMBL4952776_neutral_opt.en.tmp) ****
Finished Guess after   0.2 sec
Maximum memory used throughout the entire GUESS-calculation: 24.9 MB
--------------------
CPCM SOLVATION MODEL
--------------------
CPCM parameters:
  Epsilon                                         ...      80.1510
  Refrac                                          ...       1.3328
  Rsolv                                           ...       1.3000
  Surface type                                    ... GAUSSIAN VDW
  Discretization scheme                           ... Constant charge density
    Threshold for H atoms                         ...       5.0000 (charges/Ang^2)
    Threshold for non-H atoms                     ...       5.0000 (charges/Ang^2)
  Epsilon function type                           ...         CPCM
Solvent:                                          ... WATER
Radii:
  Scheme                                          ... Element-dependent radii
  Radius for C  used is    3.8550 Bohr (=   2.0400 Ang.)
  Radius for N  used is    3.5149 Bohr (=   1.8600 Ang.)
  Radius for H  used is    2.4944 Bohr (=   1.3200 Ang.)
Calculating surface                               ...        done! (  0.0s)
Cavity surface points                             ...         3190
Cavity Volume                                     ...    2197.9881
Cavity Surface-area                               ...    1135.3527
Calculating surface distance matrix               ...        done! (  0.1s)
Performing Cholesky decomposition & store         ...        done! (  0.3s)
Overall time for CPCM initialization              ...                 0.4s

----------------------------------------D-I-I-S--------------------------------------------
Iteration    Energy (Eh)           Delta-E    RMSDP     MaxDP     DIISErr   Damp  Time(sec)
-------------------------------------------------------------------------------------------
               ***  Starting incremental Fock matrix formation  ***
    1    -874.1293894395441839     0.00e+00  4.49e-05  1.39e-03  6.18e-03  0.700  20.3
    2    -874.1295311075448353    -1.42e-04  4.02e-05  1.26e-03  4.93e-03  0.700   8.2
                               ***Turning on AO-DIIS***
    3    -874.1296448440355107    -1.14e-04  3.27e-05  1.08e-03  3.72e-03  0.700   8.1
                              *** Initializing SOSCF ***
---------------------------------------S-O-S-C-F--------------------------------------
Iteration    Energy (Eh)           Delta-E    RMSDP     MaxDP     MaxGrad    Time(sec)
--------------------------------------------------------------------------------------
    4    -874.1297296079844728    -8.48e-05  8.27e-05  2.75e-03  2.71e-03     7.9
               *** Restarting incremental Fock matrix formation ***
    5    -874.1299431525947057    -2.14e-04  8.26e-06  2.11e-04  9.28e-05    20.3
    6    -874.1299438207504409    -6.68e-07  1.81e-06  5.22e-05  1.47e-05    11.3
    7    -874.1299438362636920    -1.55e-08  6.91e-07  2.63e-05  7.84e-06     9.3
    8    -874.1299438404487319    -4.19e-09  4.24e-07  1.33e-05  4.51e-06     8.1
                 **** Energy Check signals convergence ****

               *****************************************************
               *                     SUCCESS                       *
               *           SCF CONVERGED AFTER   8 CYCLES          *
               *****************************************************

Recomputing exchange energy using gridx3       ... done (   30.835 sec)
Old exchange energy                            :    -23.883358244 Eh
New exchange energy                            :    -23.883389137 Eh
Exchange energy change after final integration :     -0.000030892 Eh
Total energy after final integration           :   -874.129974735 Eh
             **** ENERGY FILE WAS UPDATED (C:\Users\jabreumiranda\Radioprotection_Pipeline_Project\06_Quantum_DFT_ORCA\CHEMBL4952776_neutral_opt.en.tmp) ****

----------------
TOTAL SCF ENERGY
----------------

Total Energy       :       -874.12997473522876 Eh          -23786.28588 eV

Components:
Nuclear Repulsion  :       1447.01088810348460 Eh           39375.16806 eV
Electronic Energy  :      -2321.10698110714202 Eh          -63160.53198 eV
One Electron Energy:      -4056.36123698419078 Eh         -110379.20083 eV
Two Electron Energy:       1735.25425587704854 Eh           47218.66885 eV
CPCM Dielectric    :         -0.03385083918458 Eh              -0.92113 eV

Virial components:
Potential Energy   :      -1739.14758395708304 Eh          -47324.61170 eV
Kinetic Energy     :        865.01760922185429 Eh           23538.32581 eV
Virial Ratio       :          2.01053431215299

DFT components:
N(Alpha)           :       72.000035480085 electrons
N(Beta)            :       72.000035480085 electrons
N(Total)           :      144.000070960171 electrons
E(X)               :      -94.890899787358 Eh       
E(C)               :       -5.772430710530 Eh       
E(XC)              :     -100.663330497888 Eh       

CPCM Solvation Model Properties:
Surface-charge          :         -0.02849926759585
Corrected charge        :          0.00000000000000
Outlying charge corr.   :          0.00004238712852 Eh               0.00115 eV
Free-energy (cav+disp)  :  This term is not implemented in the current solvation scheme

---------------
SCF CONVERGENCE
---------------

  Last Energy change         ...    4.1850e-09  Tolerance :   1.0000e-08
  Last MAX-Density change    ...    1.3307e-05  Tolerance :   1.0000e-07
  Last RMS-Density change    ...    4.2358e-07  Tolerance :   5.0000e-09
  Last DIIS Error            ...    2.7079e-03  Tolerance :   5.0000e-07
  Last Orbital Gradient      ...    4.5064e-06  Tolerance :   1.0000e-05
  Last Orbital Rotation      ...    9.7031e-06  Tolerance :   1.0000e-05


Total SCF time: 0 days 0 hours 2 min 12 sec 
Finished LeanSCF after 132.9 sec

Maximum memory used throughout the entire LEANSCF-calculation: 98.6 MB

------------------------------------------------------------------------------
                         ORCA PROPERTY INTEGRAL CALCULATIONS
------------------------------------------------------------------------------

GBWName                                   ... C:\Users\jabreumiranda\Radioprotection_Pipeline_Project\06_Quantum_DFT_ORCA\CHEMBL4952776_neutral_opt.gbw
Number of atoms                           ...     35
Number of basis functions                 ...    364
Max core memory                           ...   2000 MB

Dipole integrals                          ... YES
Quadrupole integrals                      ...  NO
Linear momentum integrals                 ...  NO
Angular momentum integrals                ...  NO
Higher moments length integrals           ...  NO
Higher moments velocity integrals         ...  NO
Kinetic energy integrals                  ...  NO
GIAO right hand sides                     ...  NO
GIAO dipole derivative integrals          ...  NO
SOC integrals                             ...  NO
EPR diamagnetic integrals (GIAO)          ...  NO
EPR gauge integrals                       ...  NO
Field gradient integrals                  ...  NO (   0 nuclei)
Spin-dipole/Fermi contact integrals       ...  NO (   0 nuclei)
Contact density integrals                 ...  NO (   0 nuclei)
Nucleus-orbit integrals                   ...  NO (   0 nuclei)
Geometric perturbations                   ...  NO (  35 nuclei)

Choice of electric origin   ... Center of mass
Position of electric origin ... ( -0.5950, -0.0348, -0.0669) 
Choice of magnetic origin   ... GIAO
Position of magnetic origin ... (  0.0000,  0.0000,  0.0000) 

Calculating integrals                     ... Electric Dipole (Length)     done (  0.0 sec)

Property integrals calculated in   0.0 sec

Maximum memory used throughout the entire PROPINT-calculation: 24.0 MB


-------------------------------------------------------------------------------
                          DFT DISPERSION CORRECTION                            
                                                                               
                              DFTD3 V3.1  Rev 1                                
                          USING Becke-Johnson damping                          
-------------------------------------------------------------------------------
-------------------------   ----------------
Dispersion correction           -0.074562831
-------------------------   ----------------


-------------------------   --------------------
FINAL SINGLE POINT ENERGY      -874.204537566337
-------------------------   --------------------

------------------------------------------------------------------------------
                         ORCA SCF GRADIENT CALCULATION
------------------------------------------------------------------------------

Nuc. rep. gradient        (SHARK) ... done (  0.0 sec)
HCore & Overlap gradient  (SHARK) ... done (  0.9 sec)
Split-RIJ-J gradient      (SHARK) ... done (  5.0 sec)
COSX-gradient                     ... done ( 76.8 sec)
XC gradient                       ... done ( 12.8 sec)
CPCM gradient                     ... done (  4.6 sec)
Dispersion correction             ... done (  0.1 sec)

-------------------
DISPERSION GRADIENT
-------------------

   1   C   :   -0.000079319   -0.000092596   -0.000120221
   2   C   :   -0.000062154    0.000096502    0.000118112
   3   C   :   -0.000296722    0.000199086    0.000234101
   4   C   :    0.001332621   -0.000832429   -0.000979917
   5   N   :   -0.000483108   -0.000237675   -0.000331421
   6   C   :   -0.004140301    0.000212342    0.000047451
   7   C   :    0.000465692   -0.000033472   -0.000004150
   8   C   :    0.000257987   -0.000069083   -0.000086051
   9   C   :   -0.000024254   -0.000219832   -0.000326786
  10   C   :    0.000824948    0.000864274    0.001337768
  11   N   :   -0.000691334    0.000158935    0.000201030
  12   C   :   -0.003822502   -0.000636431   -0.001180450
  13   C   :    0.000337781    0.000159702    0.000261350
  14   C   :    0.000404921   -0.000087344    0.000173183
  15   C   :    0.000413867    0.000180700    0.000000828
  16   N   :   -0.000146918   -0.000034327   -0.000053340
  17   C   :    0.003073853   -0.000294110   -0.000235263
  18   C   :    0.000055263    0.000026408    0.000058025
  19   N   :   -0.000293092    0.000111910    0.000135107
  20   C   :    0.002636547    0.000713161    0.001039464
  21   C   :   -0.000253216   -0.000153665   -0.000204700
  22   H   :   -0.000252689   -0.000064090   -0.000093562
  23   H   :   -0.000229139    0.000102385    0.000116301
  24   H   :   -0.000090281    0.000198386    0.000244125
  25   H   :    0.000038812    0.000210568    0.000256214
  26   H   :    0.000008424   -0.000182660   -0.000270587
  27   H   :    0.000028165   -0.000188070   -0.000275871
  28   H   :    0.000104120   -0.000188759   -0.000267506
  29   H   :    0.000069640    0.000146082    0.000230903
  30   H   :    0.000191575   -0.000112965    0.000136149
  31   H   :    0.000252629   -0.000245118    0.000046959
  32   H   :    0.000265191    0.000138053   -0.000198721
  33   H   :    0.000198555    0.000162813   -0.000041661
  34   H   :    0.000021504    0.000170900    0.000264065
  35   H   :   -0.000117070   -0.000179581   -0.000230928

Difference to translation invariance:
           :   -0.0000000000    0.0000000000   -0.0000000000

Difference to rotation invariance:
           :    0.0000000000   -0.0000000000   -0.0000000000

Norm of the Dispersion gradient    ...    0.0078918515
RMS gradient                       ...    0.0007701658
MAX gradient                       ...    0.0041403014

------------------
CARTESIAN GRADIENT
------------------

   1   C   :   -0.000033565    0.000038929    0.000054017
   2   C   :   -0.000111309   -0.000037834   -0.000050852
   3   C   :    0.000053574   -0.000061731   -0.000106710
   4   C   :    0.000090089   -0.000016714    0.000075680
   5   N   :   -0.000170068    0.000051432   -0.000136898
   6   C   :    0.000077307   -0.000074726   -0.000033998
   7   C   :   -0.000039801   -0.000042085   -0.000062611
   8   C   :    0.000028144   -0.000057696   -0.000055029
   9   C   :   -0.000038993    0.000126145    0.000168763
  10   C   :    0.000315334   -0.000060316   -0.000066062
  11   N   :   -0.000177111   -0.000004337   -0.000032592
  12   C   :   -0.000257892    0.000153059    0.000204702
  13   C   :    0.000094520    0.000074638    0.000101499
  14   C   :    0.000218817    0.000103198   -0.000183465
  15   C   :    0.000094041   -0.000314996   -0.000014082
  16   N   :    0.000034366   -0.000132041   -0.000220853
  17   C   :    0.000044050   -0.000023777    0.000010264
  18   C   :    0.000135739    0.000041567    0.000003390
  19   N   :   -0.000092509    0.000082936    0.000066265
  20   C   :    0.000011428    0.000024052    0.000043195
  21   C   :    0.000149843    0.000028658    0.000046885
  22   H   :   -0.000014795    0.000030285    0.000046601
  23   H   :   -0.000004808   -0.000015946   -0.000019674
  24   H   :    0.000030379   -0.000003401   -0.000003282
  25   H   :   -0.000006775   -0.000062342    0.000048478
  26   H   :   -0.000101191    0.000039456    0.000068017
  27   H   :    0.000027085   -0.000003191    0.000017102
  28   H   :   -0.000051738   -0.000029332   -0.000033989
  29   H   :   -0.000062551    0.000005916   -0.000023262
  30   H   :   -0.000052634    0.000064018    0.000023956
  31   H   :   -0.000062416    0.000041065   -0.000007264
  32   H   :   -0.000040489    0.000048158    0.000017009
  33   H   :   -0.000037967   -0.000003981    0.000060419
  34   H   :   -0.000047021   -0.000010563   -0.000018492
  35   H   :   -0.000001082    0.000001500    0.000012874

Difference to translation invariance:
           :    0.0000000000    0.0000000000    0.0000000000

Difference to rotation invariance:
           :   -0.0002041724    0.0009671009    0.0001906379

Norm of the Cartesian gradient     ...    0.0009357656
RMS gradient                       ...    0.0000913214
MAX gradient                       ...    0.0003153343

-------
TIMINGS
-------

Total SCF gradient time     ....      100.140 sec

Densities                   ....       0.004 sec  (  0.0%)
One electron gradient       ....       0.867 sec  (  0.9%)
RI-J Coulomb gradient       ....       5.008 sec  (  5.0%)
COSX gradient               ....      76.793 sec  ( 76.7%)
XC gradient                 ....      12.825 sec  ( 12.8%)
CPCM gradient               ....       4.577 sec  (  4.6%)
   A-Matrix (El+Nuc)        ....       0.507 sec  (  0.5%)
   Potential                ....       4.070 sec  (  4.1%)

Maximum memory used throughout the entire SCFGRAD-calculation: 53.0 MB
------------------------------------------------------------------------------
                         ORCA GEOMETRY RELAXATION STEP
------------------------------------------------------------------------------

Reading the OPT-File                    .... done
Getting information on internals        .... done
Copying old internal coords+grads       .... done
Making the new internal coordinates     .... (2022 redundants) done
Validating the new internal coordinates .... (2022 redundants) done
Calculating the B-matrix                .... done
Calculating the G,G- and P matrices     .... done
Transforming gradient to internals      .... done
Projecting the internal gradient        .... done
Number of atoms                         ....  35
Number of internal coordinates          .... 206
Current Energy                          ....  -874.204537566 Eh
Current gradient norm                   ....     0.000935766 Eh/bohr
Maximum allowed component of the step   ....  0.300
Current trust radius                    ....  0.467
Updating the Hessian (BFGS)             .... done
Forming the augmented Hessian           .... done
Diagonalizing the augmented Hessian     .... done
Last element of RFO vector              ....  0.999845042
Lowest eigenvalues of augmented Hessian:
 -0.000002787  0.004223751  0.010122440  0.020981062  0.021960451
Length of the computed step             ....  0.017606503
The final length of the internal step   ....  0.017606503
Converting the step to Cartesian space:
 Initial RMS(Int)=    0.0012267032
Transforming coordinates:
 Iter   0:  RMS(Cart)=    0.0069181436 RMS(Int)=    0.7581877008
done
Storing new coordinates                 .... done
The predicted energy change is          ....    -0.000001394
Previously predicted energy change      ....    -0.000005848
Actually observed energy change         ....    -0.000007824
Ratio of predicted to observed change   ....     1.337883292
New trust radius                        ....     0.466666667

                                .--------------------.
          ----------------------|Geometry convergence|-------------------------
          Item                value                   Tolerance       Converged
          ---------------------------------------------------------------------
          Energy change      -0.0000078244            0.0000050000      NO
          RMS gradient        0.0000475472            0.0001000000      YES
          MAX gradient        0.0001993191            0.0003000000      YES
          RMS step            0.0012267032            0.0020000000      YES
          MAX step            0.0084401506            0.0040000000      NO
          -------------------------------------------------------------------------
          ........................................................
          Max(Bonds)      0.0004      Max(Angles)    0.06
          Max(Dihed)        0.48      Max(Improp)    0.00
          ---------------------------------------------------------------------

The optimization has not yet converged - more geometry cycles are needed


    ---------------------------------------------------------------------------
                         Redundant Internal Coordinates
                            (Angstroem and degrees)

        Definition                    Value    dE/dq     Step     New-Value
    ----------------------------------------------------------------------------
     1. B(C   1,C   0)                1.4130 -0.000132  0.0001    1.4131   
     2. B(C   2,C   1)                1.3968  0.000056 -0.0000    1.3968   
     3. B(C   3,C   2)                1.3988 -0.000059  0.0001    1.3989   
     4. B(N   4,C   3)                1.3787 -0.000114  0.0001    1.3788   
     5. B(C   5,N   4)                1.3785  0.000027  0.0000    1.3785   
     6. B(C   6,C   5)                1.4677  0.000021 -0.0001    1.4676   
     7. B(C   7,C   6)                1.4207 -0.000092  0.0001    1.4207   
     8. B(C   8,C   7)                1.3916  0.000061 -0.0000    1.3915   
     9. B(C   9,C   8)                1.3991 -0.000047  0.0001    1.3991   
    10. B(N  10,C   9)                1.3779 -0.000198  0.0002    1.3781   
    11. B(C  11,N  10)                1.3801  0.000111 -0.0002    1.3799   
    12. B(C  12,C  11)                1.4726  0.000139 -0.0002    1.4724   
    13. B(C  13,C  12)                1.5190  0.000038 -0.0002    1.5188   
    14. B(C  14,C  13)                1.4969 -0.000190  0.0004    1.4973   
    15. B(C  14,C  12)                1.5197  0.000022 -0.0001    1.5196   
    16. B(N  15,C  11)                1.3204 -0.000199  0.0002    1.3206   
    17. B(C  16,N  15)                1.3862 -0.000140  0.0001    1.3863   
    18. B(C  16,C   9)                1.4215 -0.000056 -0.0001    1.4214   
    19. B(C  17,C  16)                1.3992 -0.000028  0.0001    1.3993   
    20. B(C  17,C   6)                1.4045  0.000013  0.0000    1.4045   
    21. B(N  18,C   5)                1.3250 -0.000046  0.0001    1.3252   
    22. B(C  19,N  18)                1.3816 -0.000072 -0.0000    1.3816   
    23. B(C  19,C   3)                1.4232 -0.000117 -0.0001    1.4231   
    24. B(C  20,C  19)                1.4053 -0.000080  0.0001    1.4054   
    25. B(C  20,C   0)                1.3952  0.000060 -0.0000    1.3952   
    26. B(H  21,C   0)                1.0931 -0.000008  0.0000    1.0931   
    27. B(H  22,C   1)                1.0930 -0.000012  0.0000    1.0931   
    28. B(H  23,C   2)                1.0922 -0.000004 -0.0000    1.0922   
    29. B(H  24,N   4)                1.0137 -0.000005  0.0000    1.0137   
    30. B(H  25,C   7)                1.0906  0.000001  0.0000    1.0906   
    31. B(H  26,C   8)                1.0919 -0.000001 -0.0000    1.0919   
    32. B(H  27,N  10)                1.0148 -0.000004 -0.0000    1.0148   
    33. B(H  28,C  12)                1.0920 -0.000012 -0.0000    1.0920   
    34. B(H  29,C  13)                1.0934 -0.000017  0.0000    1.0934   
    35. B(H  30,C  13)                1.0942 -0.000019  0.0000    1.0942   
    36. B(H  31,C  14)                1.0942 -0.000017  0.0000    1.0942   
    37. B(H  32,C  14)                1.0935 -0.000010  0.0000    1.0935   
    38. B(H  33,C  17)                1.0918 -0.000002  0.0000    1.0918   
    39. B(H  34,C  20)                1.0927 -0.000009  0.0000    1.0927   
    40. A(C   1,C   0,H  21)          119.04 -0.000042    0.01    119.05   
    41. A(C  20,C   0,H  21)          119.53  0.000069   -0.01    119.52   
    42. A(C   1,C   0,C  20)          121.43 -0.000027   -0.00    121.43   
    43. A(C   0,C   1,H  22)          119.24 -0.000000   -0.00    119.24   
    44. A(C   2,C   1,H  22)          119.27  0.000054   -0.01    119.27   
    45. A(C   0,C   1,C   2)          121.48 -0.000054    0.01    121.49   
    46. A(C   3,C   2,H  23)          121.57 -0.000064    0.01    121.58   
    47. A(C   1,C   2,H  23)          121.58 -0.000002    0.01    121.58   
    48. A(C   1,C   2,C   3)          116.86  0.000066   -0.02    116.84   
    49. A(C   2,C   3,C  19)          122.45 -0.000030    0.01    122.46   
    50. A(N   4,C   3,C  19)          104.66 -0.000011    0.00    104.67   
    51. A(C   2,C   3,N   4)          132.89  0.000041   -0.02    132.87   
    52. A(C   3,N   4,H  24)          125.53 -0.000027   -0.00    125.53   
    53. A(C   5,N   4,H  24)          126.65 -0.000020    0.01    126.66   
    54. A(C   3,N   4,C   5)          107.81  0.000047   -0.01    107.80   
    55. A(C   6,C   5,N  18)          124.92  0.000057   -0.01    124.92   
    56. A(N   4,C   5,C   6)          123.26  0.000032    0.00    123.26   
    57. A(N   4,C   5,N  18)          111.82 -0.000088    0.00    111.82   
    58. A(C   5,C   6,C   7)          118.27  0.000021   -0.01    118.26   
    59. A(C   7,C   6,C  17)          120.23 -0.000035    0.00    120.23   
    60. A(C   5,C   6,C  17)          121.50  0.000014    0.00    121.50   
    61. A(C   8,C   7,H  25)          120.14  0.000150   -0.02    120.12   
    62. A(C   6,C   7,H  25)          117.90 -0.000111    0.01    117.91   
    63. A(C   6,C   7,C   8)          121.96 -0.000039    0.01    121.97   
    64. A(C   7,C   8,H  26)          121.22 -0.000015    0.01    121.23   
    65. A(C   7,C   8,C   9)          117.14  0.000096   -0.02    117.11   
    66. A(C   9,C   8,H  26)          121.65 -0.000080    0.01    121.66   
    67. A(N  10,C   9,C  16)          104.73 -0.000002    0.00    104.73   
    68. A(C   8,C   9,C  16)          122.08 -0.000097    0.03    122.10   
    69. A(C   8,C   9,N  10)          133.19  0.000099   -0.03    133.16   
    70. A(C  11,N  10,H  27)          126.77  0.000063    0.00    126.77   
    71. A(C   9,N  10,H  27)          125.61 -0.000064    0.00    125.62   
    72. A(C   9,N  10,C  11)          107.62  0.000002   -0.00    107.61   
    73. A(N  10,C  11,C  12)          123.72  0.000014    0.01    123.73   
    74. A(C  12,C  11,N  15)          124.12  0.000044   -0.02    124.10   
    75. A(N  10,C  11,N  15)          112.16 -0.000058    0.01    112.17   
    76. A(C  13,C  12,C  14)           59.03 -0.000088    0.02     59.05   
    77. A(C  14,C  12,H  28)          117.08  0.000035   -0.04    117.05   
    78. A(C  13,C  12,H  28)          117.21  0.000031   -0.03    117.18   
    79. A(C  11,C  12,H  28)          111.64 -0.000072    0.04    111.67   
    80. A(C  11,C  12,C  13)          121.41  0.000054    0.00    121.41   
    81. A(C  11,C  12,C  14)          121.34  0.000053   -0.01    121.33   
    82. A(C  12,C  13,C  14)           60.51  0.000039   -0.01     60.50   
    83. A(C  14,C  13,H  30)          118.35 -0.000011   -0.04    118.31   
    84. A(C  12,C  13,H  30)          117.42 -0.000041    0.02    117.44   
    85. A(C  14,C  13,H  29)          118.69 -0.000023    0.01    118.70   
    86. A(C  12,C  13,H  29)          116.67 -0.000047    0.02    116.69   
    87. A(H  29,C  13,H  30)          114.63  0.000058   -0.00    114.62   
    88. A(C  12,C  14,H  32)          116.65 -0.000064    0.03    116.68   
    89. A(C  13,C  14,H  31)          118.42  0.000014   -0.06    118.35   
    90. A(C  12,C  14,H  31)          117.42 -0.000016    0.01    117.43   
    91. A(C  12,C  14,C  13)           60.46  0.000049   -0.02     60.45   
    92. A(H  31,C  14,H  32)          114.62  0.000041    0.01    114.64   
    93. A(C  13,C  14,H  32)          118.67 -0.000036    0.02    118.69   
    94. A(C  11,N  15,C  16)          105.71  0.000055   -0.01    105.70   
    95. A(N  15,C  16,C  17)          130.20 -0.000044    0.00    130.20   
    96. A(C   9,C  16,C  17)          120.02  0.000041   -0.01    120.01   
    97. A(C   9,C  16,N  15)          109.78  0.000003    0.00    109.79   
    98. A(C   6,C  17,C  16)          118.57  0.000034   -0.01    118.56   
    99. A(C  16,C  17,H  33)          119.26  0.000037    0.01    119.27   
   100. A(C   6,C  17,H  33)          122.17 -0.000071    0.00    122.17   
   101. A(C   5,N  18,C  19)          105.97  0.000029   -0.00    105.97   
   102. A(N  18,C  19,C  20)          130.57 -0.000025   -0.01    130.56   
   103. A(C   3,C  19,C  20)          119.69  0.000001    0.00    119.69   
   104. A(C   3,C  19,N  18)          109.74  0.000023    0.00    109.75   
   105. A(C   0,C  20,C  19)          118.09  0.000043   -0.01    118.08   
   106. A(C  19,C  20,H  34)          120.43 -0.000021    0.00    120.44   
   107. A(C   0,C  20,H  34)          121.48 -0.000022    0.00    121.48   
   108. D(H  22,C   1,C   0,C  20)    179.99 -0.000001    0.00    179.99   
   109. D(C   2,C   1,C   0,C  20)     -0.03 -0.000001    0.00     -0.03   
   110. D(H  22,C   1,C   0,H  21)     -0.01 -0.000001   -0.00     -0.01   
   111. D(C   2,C   1,C   0,H  21)    179.98 -0.000000   -0.00    179.98   
   112. D(C   3,C   2,C   1,H  22)    179.97  0.000000    0.00    179.98   
   113. D(H  23,C   2,C   1,H  22)      0.00 -0.000000    0.00      0.00   
   114. D(H  23,C   2,C   1,C   0)   -179.98 -0.000001    0.00   -179.98   
   115. D(C   3,C   2,C   1,C   0)     -0.01 -0.000000    0.00     -0.01   
   116. D(C  19,C   3,C   2,H  23)   -179.94  0.000002   -0.00   -179.94   
   117. D(C  19,C   3,C   2,C   1)      0.09  0.000001    0.00      0.09   
   118. D(N   4,C   3,C   2,H  23)     -0.03 -0.000004    0.02     -0.02   
   119. D(N   4,C   3,C   2,C   1)    179.99 -0.000005    0.02    180.01   
   120. D(H  24,N   4,C   3,C   2)     -0.98  0.000034   -0.17     -1.15   
   121. D(H  24,N   4,C   3,C  19)    178.94  0.000029   -0.16    178.78   
   122. D(C   5,N   4,C   3,C   2)   -179.90 -0.000001    0.01   -179.89   
   123. D(C   5,N   4,C   3,C  19)      0.02 -0.000006    0.02      0.04   
   124. D(N  18,C   5,N   4,H  24)   -178.90 -0.000029    0.15   -178.75   
   125. D(N  18,C   5,N   4,C   3)      0.01  0.000007   -0.03     -0.02   
   126. D(C   6,C   5,N   4,H  24)      1.00 -0.000033    0.17      1.18   
   127. D(C   6,C   5,N   4,C   3)    179.91  0.000002   -0.01    179.90   
   128. D(C  17,C   6,C   5,N   4)      4.47 -0.000031    0.46      4.94   
   129. D(C   7,C   6,C   5,N  18)      4.29 -0.000032    0.45      4.75   
   130. D(C  17,C   6,C   5,N  18)   -175.64 -0.000036    0.48   -175.15   
   131. D(C   7,C   6,C   5,N   4)   -175.60 -0.000028    0.43   -175.17   
   132. D(H  25,C   7,C   6,C  17)    179.79 -0.000003    0.01    179.80   
   133. D(H  25,C   7,C   6,C   5)     -0.14 -0.000006    0.04     -0.10   
   134. D(C   8,C   7,C   6,C  17)     -0.28  0.000000    0.00     -0.28   
   135. D(C   8,C   7,C   6,C   5)    179.79 -0.000003    0.03    179.82   
   136. D(C   9,C   8,C   7,H  25)    179.99  0.000001    0.00    179.99   
   137. D(C   9,C   8,C   7,C   6)      0.07 -0.000002    0.00      0.08   
   138. D(H  26,C   8,C   7,C   6)   -179.90 -0.000004    0.01   -179.89   
   139. D(H  26,C   8,C   7,H  25)      0.03 -0.000001    0.01      0.03   
   140. D(C  16,C   9,C   8,H  26)   -179.89  0.000005   -0.02   -179.90   
   141. D(C  16,C   9,C   8,C   7)      0.15  0.000003   -0.01      0.14   
   142. D(N  10,C   9,C   8,H  26)     -0.06  0.000005   -0.03     -0.10   
   143. D(N  10,C   9,C   8,C   7)    179.97  0.000002   -0.03    179.94   
   144. D(H  27,N  10,C   9,C  16)    179.97 -0.000004    0.01    179.97   
   145. D(H  27,N  10,C   9,C   8)      0.12 -0.000003    0.02      0.14   
   146. D(C  11,N  10,C   9,C  16)      0.06 -0.000001    0.01      0.06   
   147. D(C  11,N  10,C   9,C   8)   -179.79 -0.000001    0.02   -179.77   
   148. D(N  15,C  11,N  10,H  27)   -179.92  0.000002   -0.00   -179.92   
   149. D(N  15,C  11,N  10,C   9)     -0.01 -0.000000   -0.00     -0.01   
   150. D(C  12,C  11,N  10,H  27)      0.13  0.000002   -0.00      0.12   
   151. D(C  12,C  11,N  10,C   9)   -179.97 -0.000001   -0.00   -179.97   
   152. D(H  28,C  12,C  11,N  10)   -178.69  0.000007    0.01   -178.68   
   153. D(C  14,C  12,C  11,N  15)   -143.23 -0.000028    0.03   -143.20   
   154. D(C  14,C  12,C  11,N  10)     36.72 -0.000027    0.03     36.76   
   155. D(C  13,C  12,C  11,N  15)    146.29  0.000035    0.00    146.30   
   156. D(C  13,C  12,C  11,N  10)    -33.75  0.000036    0.01    -33.75   
   157. D(H  29,C  13,C  12,H  28)      2.69  0.000008    0.02      2.71   
   158. D(H  29,C  13,C  12,C  14)    109.46  0.000005   -0.00    109.45   
   159. D(H  29,C  13,C  12,C  11)   -140.41  0.000011   -0.00   -140.41   
   160. D(C  14,C  13,C  12,H  28)   -106.76  0.000003    0.02   -106.74   
   161. D(H  30,C  13,C  12,C  11)      1.40 -0.000013    0.05      1.45   
   162. D(C  14,C  13,C  12,C  11)    110.13  0.000005   -0.00    110.13   
   163. D(C  12,C  14,C  13,H  29)   -106.16  0.000031   -0.02   -106.18   
   164. D(H  32,C  14,C  12,C  11)    140.33 -0.000008   -0.02    140.31   
   165. D(H  31,C  14,C  12,H  28)   -144.22  0.000032   -0.10   -144.32   
   166. D(H  31,C  14,C  12,C  13)    108.79  0.000041   -0.08    108.71   
   167. D(H  31,C  14,C  12,C  11)     -1.45  0.000033   -0.10     -1.55   
   168. D(C  13,C  14,C  12,H  28)    106.98 -0.000010   -0.02    106.96   
   169. D(C  12,C  14,C  13,H  30)    107.22 -0.000030    0.04    107.26   
   170. D(C  13,C  14,C  12,C  11)   -110.25 -0.000008   -0.02   -110.27   
   171. D(H  32,C  14,C  13,C  12)    106.13 -0.000042    0.02    106.15   
   172. D(H  31,C  14,C  13,H  30)      0.04 -0.000024    0.01      0.05   
   173. D(H  31,C  14,C  13,H  29)    146.66  0.000038   -0.05    146.61   
   174. D(H  31,C  14,C  13,C  12)   -107.18  0.000006   -0.03   -107.20   
   175. D(C  16,N  15,C  11,C  12)    179.91  0.000002    0.00    179.91   
   176. D(C  16,N  15,C  11,N  10)     -0.05  0.000002   -0.00     -0.05   
   177. D(C  17,C  16,N  15,C  11)   -179.99  0.000003   -0.03   -180.02   
   178. D(C   9,C  16,N  15,C  11)      0.08 -0.000003    0.01      0.09   
   179. D(C  17,C  16,C   9,N  10)    179.98 -0.000003    0.03    180.00   
   180. D(C  17,C  16,C   9,C   8)     -0.16 -0.000003    0.01     -0.15   
   181. D(N  15,C  16,C   9,N  10)     -0.09  0.000003   -0.01     -0.09   
   182. D(N  15,C  16,C   9,C   8)    179.78  0.000003   -0.02    179.76   
   183. D(H  33,C  17,C  16,N  15)     -0.35 -0.000004    0.00     -0.35   
   184. D(H  33,C  17,C  16,C   9)    179.57  0.000002   -0.04    179.53   
   185. D(C   6,C  17,C  16,N  15)   -179.98 -0.000005    0.03   -179.94   
   186. D(C   6,C  17,C  16,C   9)     -0.05  0.000001   -0.01     -0.06   
   187. D(H  33,C  17,C   6,C   7)   -179.35 -0.000001    0.03   -179.32   
   188. D(H  33,C  17,C   6,C   5)      0.58  0.000002   -0.00      0.58   
   189. D(C  16,C  17,C   6,C   7)      0.27 -0.000000   -0.00      0.27   
   190. D(C  16,C  17,C   6,C   5)   -179.80  0.000003   -0.03   -179.84   
   191. D(C  19,N  18,C   5,C   6)   -179.93  0.000001   -0.00   -179.93   
   192. D(C  19,N  18,C   5,N   4)     -0.03 -0.000004    0.02     -0.01   
   193. D(C  20,C  19,N  18,C   5)   -179.93  0.000001   -0.00   -179.93   
   194. D(C   3,C  19,N  18,C   5)      0.04 -0.000000   -0.00      0.03   
   195. D(C  20,C  19,C   3,N   4)    179.94  0.000003   -0.01    179.92   
   196. D(C  20,C  19,C   3,C   2)     -0.14 -0.000001   -0.00     -0.14   
   197. D(N  18,C  19,C   3,N   4)     -0.03  0.000004   -0.01     -0.05   
   198. D(N  18,C  19,C   3,C   2)    179.89 -0.000000   -0.00    179.89   
   199. D(H  34,C  20,C  19,N  18)      0.02 -0.000000   -0.00      0.02   
   200. D(H  34,C  20,C  19,C   3)   -179.94  0.000001    0.00   -179.94   
   201. D(C   0,C  20,C  19,N  18)   -179.94 -0.000001    0.00   -179.94   
   202. D(C   0,C  20,C  19,C   3)      0.09  0.000001    0.00      0.10   
   203. D(H  34,C  20,C   0,H  21)      0.02 -0.000000    0.00      0.02   
   204. D(H  34,C  20,C   0,C   1)   -179.98  0.000000   -0.00   -179.98   
   205. D(C  19,C  20,C   0,H  21)    179.98  0.000000   -0.00    179.98   
   206. D(C  19,C  20,C   0,C   1)     -0.02  0.000001   -0.00     -0.02   
    ----------------------------------------------------------------------------

Geometry step timings:
Preparation and reading OPT file:      0.009 s (45.000 %)
Internal coordinates            :      0.000 s ( 0.000 %)
B/P matrices and projection     :      0.004 s (20.000 %)
Hessian update/contruction      :      0.002 s (10.000 %)
Making the step                 :      0.002 s (10.000 %)
Converting the step to Cartesian:      0.001 s ( 5.000 %)
Storing new data                :      0.000 s ( 0.000 %)
Checking convergence            :      0.000 s ( 0.000 %)
Final printing                  :      0.002 s (10.000 %)
Total time                      :      0.020 s

Time for energy+gradient        :    237.968 s
Time for complete geometry iter :    238.077 s

         *************************************************************
         *                GEOMETRY OPTIMIZATION CYCLE   8            *
         *************************************************************
---------------------------------
CARTESIAN COORDINATES (ANGSTROEM)
---------------------------------
  C     -6.593562   -0.183156   -0.597155
  C     -6.469331    0.697382    0.501052
  C     -5.219341    1.057035    1.010230
  C     -4.098461    0.504292    0.381792
  N     -2.743116    0.627154    0.603078
  C     -2.091518   -0.149552   -0.331003
  C     -0.630209   -0.264615   -0.403953
  C     -0.066687   -1.011332   -1.473243
  C      1.308397   -1.167027   -1.618841
  C      2.124357   -0.555117   -0.661051
  N      3.489914   -0.495134   -0.485570
  C      3.732729    0.253485    0.647870
  C      5.081287    0.542623    1.163409
  C      6.212465   -0.461761    1.028308
  C      6.247655    0.800818    0.224226
  N      2.617292    0.678807    1.212605
  C      1.587632    0.193844    0.421207
  C      0.202185    0.340191    0.552045
  N     -2.942143   -0.765099   -1.139447
  C     -4.203757   -0.382654   -0.726130
  C     -5.472210   -0.731084   -1.220793
  H     -7.591646   -0.437969   -0.962982
  H     -7.372006    1.106012    0.962550
  H     -5.121672    1.737253    1.859170
  H     -2.312611    1.205410    1.315758
  H     -0.748203   -1.467585   -2.192102
  H      1.728551   -1.742103   -2.446515
  H      4.182686   -0.928646   -1.087149
  H      5.044082    1.131290    2.082463
  H      6.887662   -0.558983    1.882842
  H      5.993947   -1.400712    0.510753
  H      6.052780    0.737976   -0.850638
  H      6.947256    1.589155    0.515324
  H     -0.197255    0.911601    1.392302
  H     -5.567248   -1.411798   -2.070211

----------------------------
CARTESIAN COORDINATES (A.U.)
----------------------------
  NO LB      ZA    FRAG     MASS         X           Y           Z
   0 C     6.0000    0    12.011  -12.460026   -0.346115   -1.128460
   1 C     6.0000    0    12.011  -12.225265    1.317862    0.946851
   2 C     6.0000    0    12.011   -9.863125    1.997506    1.909058
   3 C     6.0000    0    12.011   -7.744968    0.952974    0.721482
   4 N     7.0000    0    14.007   -5.183739    1.185150    1.139653
   5 C     6.0000    0    12.011   -3.952397   -0.282613   -0.625506
   6 C     6.0000    0    12.011   -1.190923   -0.500050   -0.763360
   7 C     6.0000    0    12.011   -0.126021   -1.911140   -2.784026
   8 C     6.0000    0    12.011    2.472512   -2.205361   -3.059165
   9 C     6.0000    0    12.011    4.014454   -1.049020   -1.249206
  10 N     7.0000    0    14.007    6.594981   -0.935667   -0.917594
  11 C     6.0000    0    12.011    7.053835    0.479017    1.224298
  12 C     6.0000    0    12.011    9.602240    1.025409    2.198524
  13 C     6.0000    0    12.011   11.739858   -0.872603    1.943220
  14 C     6.0000    0    12.011   11.806356    1.513326    0.423726
  15 N     7.0000    0    14.007    4.945965    1.282760    2.291492
  16 C     6.0000    0    12.011    3.000189    0.366312    0.795966
  17 C     6.0000    0    12.011    0.382074    0.642867    1.043213
  18 N     7.0000    0    14.007   -5.559845   -1.445828   -2.153243
  19 C     6.0000    0    12.011   -7.943950   -0.723111   -1.372187
  20 C     6.0000    0    12.011  -10.340978   -1.381549   -2.306964
  21 H     1.0000    0     1.008  -14.346131   -0.827642   -1.819773
  22 H     1.0000    0     1.008  -13.931072    2.090060    1.818956
  23 H     1.0000    0     1.008   -9.678558    3.282932    3.513322
  24 H     1.0000    0     1.008   -4.370201    2.277895    2.486422
  25 H     1.0000    0     1.008   -1.413898   -2.773335   -4.142472
  26 H     1.0000    0     1.008    3.266488   -3.292098   -4.623244
  27 H     1.0000    0     1.008    7.904131   -1.754887   -2.054414
  28 H     1.0000    0     1.008    9.531934    2.137828    3.935284
  29 H     1.0000    0     1.008   13.015796   -1.056325    3.558055
  30 H     1.0000    0     1.008   11.326918   -2.646962    0.965184
  31 H     1.0000    0     1.008   11.438097    1.394573   -1.607472
  32 H     1.0000    0     1.008   13.128411    3.003068    0.973820
  33 H     1.0000    0     1.008   -0.372757    1.722676    2.631070
  34 H     1.0000    0     1.008  -10.520575   -2.667911   -3.912133

--------------------------------
INTERNAL COORDINATES (ANGSTROEM)
--------------------------------
 C      0   0   0     0.000000000000     0.00000000     0.00000000
 C      1   0   0     1.413095906036     0.00000000     0.00000000
 C      2   1   0     1.396813660153   121.49433565     0.00000000
 C      3   2   1     1.398868119739   116.84308119     0.00000000
 N      4   3   2     1.378775306595   132.87078444   180.01119378
 C      5   4   3     1.378536160979   107.79935047   180.11077524
 C      6   5   4     1.467646113930   123.26314119   179.90115046
 C      7   6   5     1.420748160591   118.26428354   184.83310017
 C      8   7   6     1.391508919695   121.97247310   179.81951330
 C      9   8   7     1.399136949152   117.11276250     0.07584763
 N     10   9   8     1.378091478901   133.16400355   179.93929204
 C     11  10   9     1.379882759737   107.61239092   180.23426579
 C     12  11  10     1.472409417225   123.73153045   180.02988535
 C     13  12  11     1.518751272326   121.40930071   326.25289799
 C     14  13  12     1.497294798786    60.50299130   110.13294337
 N     12  11  10     1.320614894816   112.16998456     0.00000000
 C     16  12  11     1.386254358187   105.69787140   359.95211615
 C     17  16  12     1.399284931083   130.19944077   179.97906624
 N      6   5   4     1.325157550340   111.81961248     0.00000000
 C     19   6   5     1.381581153271   105.96623224     0.00000000
 C      1   2   3     1.395198056244   121.42904086   359.97428677
 H      1   2   3     1.093128917715   119.05239255   179.97704497
 H      2   1   3     1.093060002611   119.24031377   180.01501372
 H      3   2   1     1.092215133299   121.58169316   180.01877181
 H      5   4   3     1.013719240880   125.52981430   358.85411308
 H      8   7   6     1.090590652513   117.91154067   359.89962174
 H      9   8   7     1.091919180385   121.23054978   180.11408211
 H     11  10   9     1.014772457628   125.61916621     0.14309196
 H     13  12  11     1.092049498355   111.67351818   181.31606702
 H     14  13  12     1.093422042406   116.69277510   219.58641266
 H     14  13  12     1.094185048442   117.44072646     1.45444363
 H     15  14  13     1.094192299248   118.35428294   252.79559703
 H     15  14  13     1.093460578069   118.68616506   106.15220878
 H     18  17  16     1.091830856013   119.26965200   359.65086493
 H     21   1   2     1.092664513773   121.48234944   180.01863384

---------------------------
INTERNAL COORDINATES (A.U.)
---------------------------
 C      0   0   0     0.000000000000     0.00000000     0.00000000
 C      1   0   0     2.670364263373     0.00000000     0.00000000
 C      2   1   0     2.639595277810   121.49433565     0.00000000
 C      3   2   1     2.643477643780   116.84308119     0.00000000
 N      4   3   2     2.605507729678   132.87078444   180.01119378
 C      5   4   3     2.605055809957   107.79935047   180.11077524
 C      6   5   4     2.773449216842   123.26314119   179.90115046
 C      7   6   5     2.684824928789   118.26428354   184.83310017
 C      8   7   6     2.629570771132   121.97247310   179.81951330
 C      9   8   7     2.643985657748   117.11276250     0.07584763
 N     10   9   8     2.604215482613   133.16400355   179.93929204
 C     11  10   9     2.607600512823   107.61239092   180.23426579
 C     12  11  10     2.782450555561   123.73153045   180.02988535
 C     13  12  11     2.870023970241   121.40930071   326.25289799
 C     14  13  12     2.829477111450    60.50299130   110.13294337
 N     12  11  10     2.495600479579   112.16998456     0.00000000
 C     16  12  11     2.619641088929   105.69787140   359.95211615
 C     17  16  12     2.644265303071   130.19944077   179.97906624
 N      6   5   4     2.504184854441   111.81961248     0.00000000
 C     19   6   5     2.610810011470   105.96623224     0.00000000
 C      1   2   3     2.636542228880   121.42904086   359.97428677
 H      1   2   3     2.065714283552   119.05239255   179.97704497
 H      2   1   3     2.065584052878   119.24031377   180.01501372
 H      3   2   1     2.063987481259   121.58169316   180.01877181
 H      5   4   3     1.915651741950   125.52981430   358.85411308
 H      8   7   6     2.060917657464   117.91154067   359.89962174
 H      9   8   7     2.063428211304   121.23054978   180.11408211
 H     11  10   9     1.917642033163   125.61916621     0.14309196
 H     13  12  11     2.063674476576   111.67351818   181.31606702
 H     14  13  12     2.066268208940   116.69277510   219.58641266
 H     14  13  12     2.067710081387   117.44072646     1.45444363
 H     15  14  13     2.067723783424   118.35428294   252.79559703
 H     15  14  13     2.066341030790   118.68616506   106.15220878
 H     18  17  16     2.063261302429   119.26965200   359.65086493
 H     21   1   2     2.064836687286   121.48234944   180.01863384

------------------------------------------------------------------------------
                   ___                                                        
                  /   \      - P O W E R E D   B Y -                         
                 /     \                                                     
                 |  |  |   _    _      __       _____    __    __             
                 |  |  |  | |  | |    /  \     |  _  \  |  |  /  |          
                  \  \/   | |  | |   /    \    | | | |  |  | /  /          
                 / \  \   | |__| |  /  /\  \   | |_| |  |  |/  /          
                |  |  |   |  __  | /  /__\  \  |    /   |      \           
                |  |  |   | |  | | |   __   |  |    \   |  |\   \          
                \     /   | |  | | |  |  |  |  | |\  \  |  | \   \       
                 \___/    |_|  |_| |__|  |__|  |_| \__\ |__|  \__/        
                                                                              
                      - O R C A' S   B I G   F R I E N D -                    
                                      &                                       
                       - I N T E G R A L  F E E D E R -                       
                                                                              
 v1 FN, 2020, v2 2021, v3 2022-2024                                           
------------------------------------------------------------------------------


----------------------
SHARK INTEGRAL PACKAGE
----------------------

Number of atoms                             ...     35
Number of basis functions                   ...    364
Number of shells                            ...    168
Maximum angular momentum                    ...      2
Integral batch strategy                     ... SHARK/LIBINT Hybrid
RI-J (if used) integral strategy            ... SPLIT-RIJ (Revised 2003 algorithm where possible)
Printlevel                                  ...      1
Contraction scheme used                     ... SEGMENTED contraction
Prescreening option                         ... SCHWARTZ
   Thresh                                   ... 2.500e-11
   Tcut                                     ... 2.500e-12
   Tpresel                                  ... 2.500e-12 
Coulomb Range Separation                    ... NOT USED
Exchange Range Separation                   ... NOT USED
Multipole approximations                    ... NOT USED
Finite Nucleus Model                        ... NOT USED
CABS basis                                  ... NOT available
Auxiliary Coulomb fitting basis             ... AVAILABLE
   # of basis functions in Aux-J            ...   1183
   # of shells in Aux-J                     ...    385
   Maximum angular momentum in Aux-J        ...      4
Auxiliary J/K fitting basis                 ... NOT available
Auxiliary Correlation fitting basis         ... NOT available
Auxiliary 'external' fitting basis          ... NOT available

Checking pre-screening integrals            ... done (  0.0 sec) Dimension = 168
   => SHARK Basis and OBASIS are compatible. Storing Pre-screening
Shell pair information
Shell pair cut-off parameter TPreSel        ...   2.5e-12
Total number of shell pairs                 ...     14196
Shell pairs after pre-screening             ...      9243
Total number of primitive shell pairs       ...     52318
Primitive shell pairs kept                  ...     22452
          la=0 lb=0:   2749 shell pairs
          la=1 lb=0:   3403 shell pairs
          la=1 lb=1:   1092 shell pairs
          la=2 lb=0:   1139 shell pairs
          la=2 lb=1:    729 shell pairs
          la=2 lb=2:    131 shell pairs

Checking whether 4 symmetric matrices of dimension 364 fit in memory
:Max Core in MB      =   2000.00
 MB in use           =     13.66
 MB left             =   1986.34
 MB needed           =      2.03
 Data fit in memory  = YES
Calculating RI/J V-Matrix + Cholesky decomp.... done (  0.1 sec)
Calculating Nuclear repulsion               ... done (  0.0 sec) ENN=   1447.005865027577 Eh

Diagonalization of the overlap matrix:
Smallest eigenvalue                        ... 2.370e-04
Time for diagonalization                   ...    0.011 sec
Threshold for overlap eigenvalues          ... 1.000e-07
Number of eigenvalues below threshold      ... 0
Time for construction of square roots      ...    0.008 sec
Total time needed                          ...    0.020 sec

-------------------
DFT GRID GENERATION
-------------------

General Integration Accuracy     IntAcc      ... 4.388
Radial Grid Type                 RadialGrid  ... OptM3 with GC (2021)
Angular Grid (max. ang.)         AngularGrid ... 4 (Lebedev-302)
Angular grid pruning method      GridPruning ... 4 (adaptive)
Weight generation scheme         WeightScheme... mBecke (2022)
Basis function cutoff            BFCut       ... 1.0000e-11
Integration weight cutoff        WCut        ... 1.0000e-14
Partially contracted basis set               ... off
Rotationally invariant grid construction     ... off
Angular grids for H and He will be reduced by one unit

Total number of grid points                  ...   170612
Total number of batches                      ...     2685
Average number of points per batch           ...       63
Average number of grid points per atom       ...     4875

--------------------
COSX GRID GENERATION
--------------------

GRIDX 1
-------
General Integration Accuracy     IntAcc      ... 3.816
Radial Grid Type                 RadialGrid  ... OptM3 with GC (2021)
Angular Grid (max. ang.)         AngularGrid ... 1 (Lebedev-50)
Angular grid pruning method      GridPruning ... 4 (adaptive)
Weight generation scheme         WeightScheme... mBecke (2022)
Basis function cutoff            BFCut       ... 1.0000e-11
Integration weight cutoff        WCut        ... 1.0000e-14
Partially contracted basis set               ... on
Rotationally invariant grid construction     ... off
Angular grids for H and He will be reduced by one unit

Total number of grid points                  ...    21667
Total number of batches                      ...      189
Average number of points per batch           ...      114
Average number of grid points per atom       ...      619
UseSFitting                                  ... on

GRIDX 2
-------
General Integration Accuracy     IntAcc      ... 4.020
Radial Grid Type                 RadialGrid  ... OptM3 with GC (2021)
Angular Grid (max. ang.)         AngularGrid ... 2 (Lebedev-110)
Angular grid pruning method      GridPruning ... 4 (adaptive)
Weight generation scheme         WeightScheme... mBecke (2022)
Basis function cutoff            BFCut       ... 1.0000e-11
Integration weight cutoff        WCut        ... 1.0000e-14
Partially contracted basis set               ... on
Rotationally invariant grid construction     ... off
Angular grids for H and He will be reduced by one unit

Total number of grid points                  ...    47669
Total number of batches                      ...      391
Average number of points per batch           ...      121
Average number of grid points per atom       ...     1362
UseSFitting                                  ... on

GRIDX 3
-------
General Integration Accuracy     IntAcc      ... 4.338
Radial Grid Type                 RadialGrid  ... OptM3 with GC (2021)
Angular Grid (max. ang.)         AngularGrid ... 3 (Lebedev-194)
Angular grid pruning method      GridPruning ... 4 (adaptive)
Weight generation scheme         WeightScheme... mBecke (2022)
Basis function cutoff            BFCut       ... 1.0000e-11
Integration weight cutoff        WCut        ... 1.0000e-14
Partially contracted basis set               ... on
Rotationally invariant grid construction     ... off
Angular grids for H and He will be reduced by one unit

Total number of grid points                  ...   104541
Total number of batches                      ...      835
Average number of points per batch           ...      125
Average number of grid points per atom       ...     2987
UseSFitting                                  ... on
Grids setup in   4.0 sec
Initializing property integral containers    ... done (  0.0 sec)

SHARK setup successfully completed in   4.3 seconds

Maximum memory used throughout the entire STARTUP-calculation: 70.5 MB
Occupation numbers will be reassigned to an Aufbau configuration
             **** ENERGY FILE WAS UPDATED (C:\Users\jabreumiranda\Radioprotection_Pipeline_Project\06_Quantum_DFT_ORCA\CHEMBL4952776_neutral_opt.en.tmp) ****
Finished Guess after   0.2 sec
Maximum memory used throughout the entire GUESS-calculation: 24.9 MB
--------------------
CPCM SOLVATION MODEL
--------------------
CPCM parameters:
  Epsilon                                         ...      80.1510
  Refrac                                          ...       1.3328
  Rsolv                                           ...       1.3000
  Surface type                                    ... GAUSSIAN VDW
  Discretization scheme                           ... Constant charge density
    Threshold for H atoms                         ...       5.0000 (charges/Ang^2)
    Threshold for non-H atoms                     ...       5.0000 (charges/Ang^2)
  Epsilon function type                           ...         CPCM
Solvent:                                          ... WATER
Radii:
  Scheme                                          ... Element-dependent radii
  Radius for C  used is    3.8550 Bohr (=   2.0400 Ang.)
  Radius for N  used is    3.5149 Bohr (=   1.8600 Ang.)
  Radius for H  used is    2.4944 Bohr (=   1.3200 Ang.)
Calculating surface                               ...        done! (  0.0s)
Cavity surface points                             ...         3189
Cavity Volume                                     ...    2198.0935
Cavity Surface-area                               ...    1135.4781
Calculating surface distance matrix               ...        done! (  0.1s)
Performing Cholesky decomposition & store         ...        done! (  0.4s)
Overall time for CPCM initialization              ...                 0.4s

----------------------------------------D-I-I-S--------------------------------------------
Iteration    Energy (Eh)           Delta-E    RMSDP     MaxDP     DIISErr   Damp  Time(sec)
-------------------------------------------------------------------------------------------
               ***  Starting incremental Fock matrix formation  ***
                              *** Initializing SOSCF ***
---------------------------------------S-O-S-C-F--------------------------------------
Iteration    Energy (Eh)           Delta-E    RMSDP     MaxDP     MaxGrad    Time(sec)
--------------------------------------------------------------------------------------
    1    -874.1298364721387770     0.00e+00  6.62e-05  2.10e-03  2.93e-04    20.3
               *** Restarting incremental Fock matrix formation ***
    2    -874.1299307801255054    -9.43e-05  2.95e-05  8.72e-04  3.96e-04    20.2
    3    -874.1299428884826739    -1.21e-05  6.03e-06  1.99e-04  5.82e-05    12.9
    4    -874.1299430651706643    -1.77e-07  2.93e-06  1.56e-04  3.80e-05    10.7
    5    -874.1299431198685852    -5.47e-08  1.76e-06  6.68e-05  2.59e-05     9.5
    6    -874.1299431553270551    -3.55e-08  6.79e-07  3.09e-05  6.25e-06     9.2
    7    -874.1299431547881795     5.39e-10  3.96e-07  1.93e-05  6.55e-06     7.9
                 **** Energy Check signals convergence ****

               *****************************************************
               *                     SUCCESS                       *
               *           SCF CONVERGED AFTER   7 CYCLES          *
               *****************************************************

Recomputing exchange energy using gridx3       ... done (   30.937 sec)
Old exchange energy                            :    -23.883282608 Eh
New exchange energy                            :    -23.883313712 Eh
Exchange energy change after final integration :     -0.000031104 Eh
Total energy after final integration           :   -874.129974260 Eh
             **** ENERGY FILE WAS UPDATED (C:\Users\jabreumiranda\Radioprotection_Pipeline_Project\06_Quantum_DFT_ORCA\CHEMBL4952776_neutral_opt.en.tmp) ****

----------------
TOTAL SCF ENERGY
----------------

Total Energy       :       -874.12997425988692 Eh          -23786.28587 eV

Components:
Nuclear Repulsion  :       1447.00586502757733 Eh           39375.03138 eV
Electronic Energy  :      -2321.10194670641613 Eh          -63160.39498 eV
One Electron Energy:      -4056.35193099099706 Eh         -110378.94760 eV
Two Electron Energy:       1735.24998428458093 Eh           47218.55262 eV
CPCM Dielectric    :         -0.03386147721142 Eh              -0.92142 eV

Virial components:
Potential Energy   :      -1739.14641840674221 Eh          -47324.57998 eV
Kinetic Energy     :        865.01644414685541 Eh           23538.29411 eV
Virial Ratio       :          2.01053567267385

DFT components:
N(Alpha)           :       72.000035134401 electrons
N(Beta)            :       72.000035134401 electrons
N(Total)           :      144.000070268801 electrons
E(X)               :      -94.890645929260 Eh       
E(C)               :       -5.772410865426 Eh       
E(XC)              :     -100.663056794685 Eh       

CPCM Solvation Model Properties:
Surface-charge          :         -0.02850024126780
Corrected charge        :         -0.00000000000000
Outlying charge corr.   :          0.00004238988484 Eh               0.00115 eV
Free-energy (cav+disp)  :  This term is not implemented in the current solvation scheme

---------------
SCF CONVERGENCE
---------------

  Last Energy change         ...   -5.3888e-10  Tolerance :   1.0000e-08
  Last MAX-Density change    ...    1.9250e-05  Tolerance :   1.0000e-07
  Last RMS-Density change    ...    3.9629e-07  Tolerance :   5.0000e-09
  Last DIIS Error            ...    2.6671e-03  Tolerance :   5.0000e-07
  Last Orbital Gradient      ...    6.5534e-06  Tolerance :   1.0000e-05
  Last Orbital Rotation      ...    7.0890e-06  Tolerance :   1.0000e-05


Total SCF time: 0 days 0 hours 2 min 9 sec 
Finished LeanSCF after 129.8 sec

Maximum memory used throughout the entire LEANSCF-calculation: 98.6 MB

------------------------------------------------------------------------------
                         ORCA PROPERTY INTEGRAL CALCULATIONS
------------------------------------------------------------------------------

GBWName                                   ... C:\Users\jabreumiranda\Radioprotection_Pipeline_Project\06_Quantum_DFT_ORCA\CHEMBL4952776_neutral_opt.gbw
Number of atoms                           ...     35
Number of basis functions                 ...    364
Max core memory                           ...   2000 MB

Dipole integrals                          ... YES
Quadrupole integrals                      ...  NO
Linear momentum integrals                 ...  NO
Angular momentum integrals                ...  NO
Higher moments length integrals           ...  NO
Higher moments velocity integrals         ...  NO
Kinetic energy integrals                  ...  NO
GIAO right hand sides                     ...  NO
GIAO dipole derivative integrals          ...  NO
SOC integrals                             ...  NO
EPR diamagnetic integrals (GIAO)          ...  NO
EPR gauge integrals                       ...  NO
Field gradient integrals                  ...  NO (   0 nuclei)
Spin-dipole/Fermi contact integrals       ...  NO (   0 nuclei)
Contact density integrals                 ...  NO (   0 nuclei)
Nucleus-orbit integrals                   ...  NO (   0 nuclei)
Geometric perturbations                   ...  NO (  35 nuclei)

Choice of electric origin   ... Center of mass
Position of electric origin ... ( -0.5950, -0.0351, -0.0665) 
Choice of magnetic origin   ... GIAO
Position of magnetic origin ... (  0.0000,  0.0000,  0.0000) 

Calculating integrals                     ... Electric Dipole (Length)     done (  0.0 sec)

Property integrals calculated in   0.0 sec

Maximum memory used throughout the entire PROPINT-calculation: 24.0 MB


-------------------------------------------------------------------------------
                          DFT DISPERSION CORRECTION                            
                                                                               
                              DFTD3 V3.1  Rev 1                                
                          USING Becke-Johnson damping                          
-------------------------------------------------------------------------------
-------------------------   ----------------
Dispersion correction           -0.074562903
-------------------------   ----------------


-------------------------   --------------------
FINAL SINGLE POINT ENERGY      -874.204537162690
-------------------------   --------------------

------------------------------------------------------------------------------
                         ORCA SCF GRADIENT CALCULATION
------------------------------------------------------------------------------

Nuc. rep. gradient        (SHARK) ... done (  0.0 sec)
HCore & Overlap gradient  (SHARK) ... done (  0.9 sec)
Split-RIJ-J gradient      (SHARK) ... done (  5.0 sec)
COSX-gradient                     ... done ( 76.9 sec)
XC gradient                       ... done ( 12.8 sec)
CPCM gradient                     ... done (  4.6 sec)
Dispersion correction             ... done (  0.1 sec)

-------------------
DISPERSION GRADIENT
-------------------

   1   C   :   -0.000079341   -0.000093377   -0.000119743
   2   C   :   -0.000061676    0.000097029    0.000117627
   3   C   :   -0.000296733    0.000200269    0.000233581
   4   C   :    0.001332555   -0.000835922   -0.000976603
   5   N   :   -0.000482920   -0.000239125   -0.000329770
   6   C   :   -0.004140454    0.000208364    0.000049306
   7   C   :    0.000465823   -0.000033662   -0.000003794
   8   C   :    0.000258857   -0.000068347   -0.000085913
   9   C   :   -0.000024145   -0.000219089   -0.000328154
  10   C   :    0.000824440    0.000860132    0.001340323
  11   N   :   -0.000690717    0.000158381    0.000200955
  12   C   :   -0.003821883   -0.000631656   -0.001182716
  13   C   :    0.000337818    0.000158855    0.000261901
  14   C   :    0.000404659   -0.000087869    0.000172942
  15   C   :    0.000413662    0.000180593    0.000001438
  16   N   :   -0.000147004   -0.000034028   -0.000053414
  17   C   :    0.003072174   -0.000294306   -0.000234967
  18   C   :    0.000055464    0.000025853    0.000058426
  19   N   :   -0.000293176    0.000111818    0.000134982
  20   C   :    0.002636134    0.000720830    0.001033454
  21   C   :   -0.000253198   -0.000155107   -0.000203704
  22   H   :   -0.000252691   -0.000064860   -0.000093043
  23   H   :   -0.000229135    0.000102774    0.000115944
  24   H   :   -0.000090302    0.000199586    0.000243146
  25   H   :    0.000038758    0.000212662    0.000254652
  26   H   :    0.000008535   -0.000181692   -0.000271279
  27   H   :    0.000028159   -0.000187260   -0.000276439
  28   H   :    0.000104167   -0.000187989   -0.000268003
  29   H   :    0.000069766    0.000145331    0.000231334
  30   H   :    0.000191536   -0.000113447    0.000135906
  31   H   :    0.000252584   -0.000245217    0.000046171
  32   H   :    0.000265228    0.000138426   -0.000198247
  33   H   :    0.000198602    0.000163019   -0.000041208
  34   H   :    0.000021525    0.000169974    0.000264767
  35   H   :   -0.000117074   -0.000180940   -0.000229859

Difference to translation invariance:
           :   -0.0000000000    0.0000000000   -0.0000000000

Difference to rotation invariance:
           :   -0.0000000000   -0.0000000000    0.0000000000

Norm of the Dispersion gradient    ...    0.0078904451
RMS gradient                       ...    0.0007700286
MAX gradient                       ...    0.0041404537

------------------
CARTESIAN GRADIENT
------------------

   1   C   :   -0.000048924    0.000014657    0.000020137
   2   C   :   -0.000045529   -0.000033886   -0.000041611
   3   C   :    0.000036405    0.000001609   -0.000020939
   4   C   :    0.000029506   -0.000070297   -0.000046619
   5   N   :   -0.000110078    0.000068767   -0.000033048
   6   C   :    0.000180561   -0.000023955   -0.000007218
   7   C   :   -0.000119552   -0.000017600   -0.000040856
   8   C   :    0.000073810   -0.000025766   -0.000013672
   9   C   :   -0.000042993    0.000027942    0.000037569
  10   C   :    0.000067416    0.000011453    0.000033717
  11   N   :    0.000008807    0.000003043   -0.000004620
  12   C   :   -0.000053097    0.000043814    0.000049559
  13   C   :    0.000002551    0.000009864    0.000072767
  14   C   :    0.000071335    0.000025259   -0.000056351
  15   C   :    0.000020200   -0.000096119   -0.000043589
  16   N   :   -0.000007455   -0.000049033   -0.000085799
  17   C   :    0.000068351   -0.000035773   -0.000057496
  18   C   :    0.000095305    0.000037687    0.000035459
  19   N   :   -0.000155754   -0.000002579   -0.000007689
  20   C   :    0.000063938    0.000061053    0.000103337
  21   C   :    0.000098372    0.000002902    0.000014507
  22   H   :   -0.000009616    0.000018251    0.000030126
  23   H   :   -0.000005721   -0.000006893   -0.000007470
  24   H   :    0.000025971   -0.000000315    0.000000899
  25   H   :   -0.000010292   -0.000039779    0.000034477
  26   H   :   -0.000070459    0.000026868    0.000042784
  27   H   :    0.000028929    0.000000243    0.000012481
  28   H   :   -0.000044015   -0.000023259   -0.000030037
  29   H   :    0.000011520    0.000006647   -0.000016601
  30   H   :   -0.000030823    0.000049307    0.000020636
  31   H   :   -0.000034370    0.000036423   -0.000035630
  32   H   :   -0.000020947   -0.000012713    0.000004169
  33   H   :   -0.000022943    0.000001441    0.000045594
  34   H   :   -0.000045173   -0.000006177   -0.000013588
  35   H   :   -0.000005236   -0.000003087    0.000004618

Difference to translation invariance:
           :    0.0000000000    0.0000000000    0.0000000000

Difference to rotation invariance:
           :   -0.0002059270    0.0009725644    0.0001055748

Norm of the Cartesian gradient     ...    0.0004985071
RMS gradient                       ...    0.0000486493
MAX gradient                       ...    0.0001805606

-------
TIMINGS
-------

Total SCF gradient time     ....      100.243 sec

Densities                   ....       0.004 sec  (  0.0%)
One electron gradient       ....       0.871 sec  (  0.9%)
RI-J Coulomb gradient       ....       4.962 sec  (  4.9%)
COSX gradient               ....      76.930 sec  ( 76.7%)
XC gradient                 ....      12.831 sec  ( 12.8%)
CPCM gradient               ....       4.578 sec  (  4.6%)
   A-Matrix (El+Nuc)        ....       0.510 sec  (  0.5%)
   Potential                ....       4.068 sec  (  4.1%)

Maximum memory used throughout the entire SCFGRAD-calculation: 53.0 MB
------------------------------------------------------------------------------
                         ORCA GEOMETRY RELAXATION STEP
------------------------------------------------------------------------------

Reading the OPT-File                    .... done
Getting information on internals        .... done
Copying old internal coords+grads       .... done
Making the new internal coordinates     .... (2022 redundants) done
Validating the new internal coordinates .... (2022 redundants) done
Calculating the B-matrix                .... done
Calculating the G,G- and P matrices     .... done
Transforming gradient to internals      .... done
Projecting the internal gradient        .... done
Number of atoms                         ....  35
Number of internal coordinates          .... 206
Current Energy                          ....  -874.204537163 Eh
Current gradient norm                   ....     0.000498507 Eh/bohr
Maximum allowed component of the step   ....  0.300
Current trust radius                    ....  0.467
Updating the Hessian (BFGS)             .... done
Forming the augmented Hessian           .... done
Diagonalizing the augmented Hessian     .... done
Last element of RFO vector              ....  0.999956521
Lowest eigenvalues of augmented Hessian:
 -0.000000843  0.003605085  0.009925693  0.020981251  0.021960812
Length of the computed step             ....  0.009325412
The final length of the internal step   ....  0.009325412
Converting the step to Cartesian space:
 Initial RMS(Int)=    0.0006497322
Transforming coordinates:
 Iter   0:  RMS(Cart)=    0.0034629866 RMS(Int)=    0.0006497903
done
Storing new coordinates                 .... done
The predicted energy change is          ....    -0.000000422
Previously predicted energy change      ....    -0.000001394
Actually observed energy change         ....     0.000000404
Ratio of predicted to observed change   ....     0.289616462
New trust radius                        ....     0.311111111

                                .--------------------.
          ----------------------|Geometry convergence|-------------------------
          Item                value                   Tolerance       Converged
          ---------------------------------------------------------------------
          Energy change       0.0000004036            0.0000050000      YES
          RMS gradient        0.0000265700            0.0001000000      YES
          MAX gradient        0.0001187998            0.0003000000      YES
          RMS step            0.0006497322            0.0020000000      YES
          MAX step            0.0041758945            0.0040000000      NO
          -------------------------------------------------------------------------
          ........................................................
          Max(Bonds)      0.0002      Max(Angles)    0.03
          Max(Dihed)        0.24      Max(Improp)    0.00
          ---------------------------------------------------------------------

The optimization has not yet converged - more geometry cycles are needed


    ---------------------------------------------------------------------------
                         Redundant Internal Coordinates
                            (Angstroem and degrees)

        Definition                    Value    dE/dq     Step     New-Value
    ----------------------------------------------------------------------------
     1. B(C   1,C   0)                1.4131 -0.000063  0.0001    1.4132   
     2. B(C   2,C   1)                1.3968  0.000047 -0.0001    1.3968   
     3. B(C   3,C   2)                1.3989 -0.000025  0.0000    1.3989   
     4. B(N   4,C   3)                1.3788 -0.000057  0.0001    1.3789   
     5. B(C   5,N   4)                1.3785  0.000054 -0.0001    1.3785   
     6. B(C   6,C   5)                1.4676 -0.000045  0.0000    1.4677   
     7. B(C   7,C   6)                1.4207 -0.000037  0.0000    1.4208   
     8. B(C   8,C   7)                1.3915  0.000020 -0.0000    1.3915   
     9. B(C   9,C   8)                1.3991 -0.000003  0.0000    1.3992   
    10. B(N  10,C   9)                1.3781 -0.000037  0.0001    1.3782   
    11. B(C  11,N  10)                1.3799  0.000042 -0.0001    1.3798   
    12. B(C  12,C  11)                1.4724  0.000004 -0.0000    1.4724   
    13. B(C  13,C  12)                1.5188 -0.000023 -0.0001    1.5187   
    14. B(C  14,C  13)                1.4973 -0.000076  0.0002    1.4975   
    15. B(C  14,C  12)                1.5196 -0.000015 -0.0000    1.5196   
    16. B(N  15,C  11)                1.3206 -0.000075  0.0001    1.3207   
    17. B(C  16,N  15)                1.3863 -0.000079  0.0001    1.3864   
    18. B(C  16,C   9)                1.4214 -0.000069  0.0000    1.4214   
    19. B(C  17,C  16)                1.3993  0.000002  0.0000    1.3993   
    20. B(C  17,C   6)                1.4045  0.000022 -0.0000    1.4045   
    21. B(N  18,C   5)                1.3252  0.000053 -0.0000    1.3251   
    22. B(C  19,N  18)                1.3816 -0.000078  0.0001    1.3817   
    23. B(C  19,C   3)                1.4231 -0.000119  0.0001    1.4232   
    24. B(C  20,C  19)                1.4054 -0.000031  0.0001    1.4054   
    25. B(C  20,C   0)                1.3952  0.000044 -0.0000    1.3951   
    26. B(H  21,C   0)                1.0931 -0.000005  0.0000    1.0931   
    27. B(H  22,C   1)                1.0931 -0.000002  0.0000    1.0931   
    28. B(H  23,C   2)                1.0922  0.000000 -0.0000    1.0922   
    29. B(H  24,N   4)                1.0137 -0.000004  0.0000    1.0137   
    30. B(H  25,C   7)                1.0906  0.000004 -0.0000    1.0906   
    31. B(H  26,C   8)                1.0919  0.000001 -0.0000    1.0919   
    32. B(H  27,N  10)                1.0148 -0.000003  0.0000    1.0148   
    33. B(H  28,C  12)                1.0920 -0.000008  0.0000    1.0921   
    34. B(H  29,C  13)                1.0934 -0.000005  0.0000    1.0934   
    35. B(H  30,C  13)                1.0942 -0.000008  0.0000    1.0942   
    36. B(H  31,C  14)                1.0942 -0.000005  0.0000    1.0942   
    37. B(H  32,C  14)                1.0935 -0.000001 -0.0000    1.0935   
    38. B(H  33,C  17)                1.0918  0.000003  0.0000    1.0918   
    39. B(H  34,C  20)                1.0927  0.000001 -0.0000    1.0927   
    40. A(C   1,C   0,H  21)          119.05 -0.000018    0.01    119.06   
    41. A(C  20,C   0,H  21)          119.52  0.000049   -0.01    119.51   
    42. A(C   1,C   0,C  20)          121.43 -0.000032    0.00    121.43   
    43. A(C   0,C   1,H  22)          119.24 -0.000007    0.00    119.24   
    44. A(C   2,C   1,H  22)          119.27  0.000023   -0.01    119.26   
    45. A(C   0,C   1,C   2)          121.49 -0.000016    0.00    121.50   
    46. A(C   3,C   2,H  23)          121.58 -0.000034    0.01    121.58   
    47. A(C   1,C   2,H  23)          121.58  0.000017   -0.00    121.58   
    48. A(C   1,C   2,C   3)          116.84  0.000017   -0.01    116.84   
    49. A(C   2,C   3,C  19)          122.46 -0.000001    0.00    122.47   
    50. A(N   4,C   3,C  19)          104.67  0.000015    0.00    104.67   
    51. A(C   2,C   3,N   4)          132.87 -0.000014   -0.00    132.87   
    52. A(C   3,N   4,H  24)          125.53 -0.000014    0.00    125.53   
    53. A(C   5,N   4,H  24)          126.66  0.000003    0.00    126.66   
    54. A(C   3,N   4,C   5)          107.80  0.000011   -0.00    107.80   
    55. A(C   6,C   5,N  18)          124.92  0.000038   -0.01    124.91   
    56. A(N   4,C   5,C   6)          123.26  0.000037   -0.00    123.26   
    57. A(N   4,C   5,N  18)          111.82 -0.000075    0.01    111.83   
    58. A(C   5,C   6,C   7)          118.26  0.000013   -0.00    118.26   
    59. A(C   7,C   6,C  17)          120.23 -0.000029    0.00    120.24   
    60. A(C   5,C   6,C  17)          121.50  0.000016   -0.00    121.50   
    61. A(C   8,C   7,H  25)          120.12  0.000087   -0.02    120.09   
    62. A(C   6,C   7,H  25)          117.91 -0.000089    0.02    117.93   
    63. A(C   6,C   7,C   8)          121.97  0.000002    0.00    121.98   
    64. A(C   7,C   8,H  26)          121.23  0.000022    0.00    121.23   
    65. A(C   7,C   8,C   9)          117.11  0.000023   -0.01    117.10   
    66. A(C   9,C   8,H  26)          121.66 -0.000045    0.01    121.67   
    67. A(N  10,C   9,C  16)          104.73  0.000008   -0.00    104.73   
    68. A(C   8,C   9,C  16)          122.10 -0.000031    0.01    122.12   
    69. A(C   8,C   9,N  10)          133.16  0.000023   -0.01    133.15   
    70. A(C  11,N  10,H  27)          126.77  0.000066   -0.01    126.76   
    71. A(C   9,N  10,H  27)          125.62 -0.000042    0.01    125.63   
    72. A(C   9,N  10,C  11)          107.61 -0.000024    0.00    107.61   
    73. A(N  10,C  11,C  12)          123.73  0.000037   -0.00    123.73   
    74. A(C  12,C  11,N  15)          124.10 -0.000015   -0.00    124.10   
    75. A(N  10,C  11,N  15)          112.17 -0.000021    0.01    112.18   
    76. A(C  13,C  12,C  14)           59.05 -0.000023    0.01     59.06   
    77. A(C  14,C  12,H  28)          117.05  0.000000   -0.01    117.04   
    78. A(C  13,C  12,H  28)          117.18  0.000003   -0.02    117.16   
    79. A(C  11,C  12,H  28)          111.67  0.000003    0.01    111.68   
    80. A(C  11,C  12,C  13)          121.41  0.000007    0.00    121.41   
    81. A(C  11,C  12,C  14)          121.33 -0.000001    0.00    121.33   
    82. A(C  12,C  13,C  14)           60.50  0.000014   -0.00     60.50   
    83. A(C  14,C  13,H  30)          118.31 -0.000035   -0.01    118.31   
    84. A(C  12,C  13,H  30)          117.44 -0.000025    0.01    117.45   
    85. A(C  14,C  13,H  29)          118.70 -0.000010   -0.00    118.70   
    86. A(C  12,C  13,H  29)          116.69 -0.000028    0.02    116.71   
    87. A(H  29,C  13,H  30)          114.63  0.000054   -0.01    114.61   
    88. A(C  12,C  14,H  32)          116.68 -0.000041    0.03    116.71   
    89. A(C  13,C  14,H  31)          118.35 -0.000002   -0.02    118.33   
    90. A(C  12,C  14,H  31)          117.43 -0.000004    0.00    117.43   
    91. A(C  12,C  14,C  13)           60.45  0.000009   -0.01     60.44   
    92. A(H  31,C  14,H  32)          114.64  0.000035   -0.00    114.63   
    93. A(C  13,C  14,H  32)          118.69 -0.000019    0.01    118.69   
    94. A(C  11,N  15,C  16)          105.70  0.000026   -0.01    105.69   
    95. A(N  15,C  16,C  17)          130.20 -0.000039    0.01    130.21   
    96. A(C   9,C  16,C  17)          120.01  0.000028   -0.01    120.01   
    97. A(C   9,C  16,N  15)          109.79  0.000011    0.00    109.79   
    98. A(C   6,C  17,C  16)          118.56  0.000006   -0.00    118.56   
    99. A(C  16,C  17,H  33)          119.27  0.000047   -0.01    119.26   
   100. A(C   6,C  17,H  33)          122.17 -0.000053    0.01    122.18   
   101. A(C   5,N  18,C  19)          105.97  0.000007   -0.00    105.96   
   102. A(N  18,C  19,C  20)          130.56 -0.000053    0.00    130.57   
   103. A(C   3,C  19,C  20)          119.69  0.000011   -0.00    119.69   
   104. A(C   3,C  19,N  18)          109.75  0.000042   -0.00    109.74   
   105. A(C   0,C  20,C  19)          118.08  0.000021   -0.00    118.08   
   106. A(C  19,C  20,H  34)          120.44 -0.000006    0.00    120.44   
   107. A(C   0,C  20,H  34)          121.48 -0.000014    0.00    121.49   
   108. D(H  22,C   1,C   0,C  20)    179.99 -0.000000   -0.00    179.99   
   109. D(C   2,C   1,C   0,C  20)     -0.03  0.000000   -0.00     -0.03   
   110. D(H  22,C   1,C   0,H  21)     -0.01 -0.000000   -0.00     -0.01   
   111. D(C   2,C   1,C   0,H  21)    179.98  0.000000   -0.00    179.98   
   112. D(C   3,C   2,C   1,H  22)    179.98  0.000000    0.00    179.98   
   113. D(H  23,C   2,C   1,H  22)      0.00  0.000000   -0.00      0.00   
   114. D(H  23,C   2,C   1,C   0)   -179.98  0.000000   -0.00   -179.98   
   115. D(C   3,C   2,C   1,C   0)     -0.01 -0.000000    0.00     -0.01   
   116. D(C  19,C   3,C   2,H  23)   -179.94 -0.000000    0.00   -179.93   
   117. D(C  19,C   3,C   2,C   1)      0.09  0.000000    0.00      0.09   
   118. D(N   4,C   3,C   2,H  23)     -0.02 -0.000001    0.01     -0.01   
   119. D(N   4,C   3,C   2,C   1)   -179.99 -0.000001    0.01   -179.98   
   120. D(H  24,N   4,C   3,C   2)     -1.15  0.000022   -0.12     -1.26   
   121. D(H  24,N   4,C   3,C  19)    178.78  0.000021   -0.11    178.67   
   122. D(C   5,N   4,C   3,C   2)   -179.89  0.000003   -0.00   -179.89   
   123. D(C   5,N   4,C   3,C  19)      0.04  0.000002    0.00      0.04   
   124. D(N  18,C   5,N   4,H  24)   -178.75 -0.000021    0.11   -178.64   
   125. D(N  18,C   5,N   4,C   3)     -0.02 -0.000002   -0.00     -0.02   
   126. D(C   6,C   5,N   4,H  24)      1.18 -0.000020    0.11      1.29   
   127. D(C   6,C   5,N   4,C   3)    179.90 -0.000001    0.00    179.90   
   128. D(C  17,C   6,C   5,N   4)      4.94 -0.000013    0.24      5.17   
   129. D(C   7,C   6,C   5,N  18)      4.75 -0.000012    0.23      4.97   
   130. D(C  17,C   6,C   5,N  18)   -175.15 -0.000012    0.24   -174.91   
   131. D(C   7,C   6,C   5,N   4)   -175.17 -0.000013    0.22   -174.94   
   132. D(H  25,C   7,C   6,C  17)    179.80  0.000000    0.00    179.80   
   133. D(H  25,C   7,C   6,C   5)     -0.10 -0.000000    0.01     -0.09   
   134. D(C   8,C   7,C   6,C  17)     -0.28  0.000001   -0.00     -0.28   
   135. D(C   8,C   7,C   6,C   5)    179.82  0.000000    0.01    179.83   
   136. D(C   9,C   8,C   7,H  25)    179.99  0.000000    0.00    179.99   
   137. D(C   9,C   8,C   7,C   6)      0.08 -0.000000    0.00      0.08   
   138. D(H  26,C   8,C   7,C   6)   -179.89 -0.000001    0.01   -179.88   
   139. D(H  26,C   8,C   7,H  25)      0.03 -0.000001    0.00      0.04   
   140. D(C  16,C   9,C   8,H  26)   -179.90  0.000001   -0.01   -179.91   
   141. D(C  16,C   9,C   8,C   7)      0.14 -0.000000   -0.00      0.13   
   142. D(N  10,C   9,C   8,H  26)     -0.10  0.000001   -0.02     -0.12   
   143. D(N  10,C   9,C   8,C   7)    179.94  0.000000   -0.01    179.93   
   144. D(H  27,N  10,C   9,C  16)    179.97 -0.000001    0.00    179.97   
   145. D(H  27,N  10,C   9,C   8)      0.14 -0.000002    0.01      0.15   
   146. D(C  11,N  10,C   9,C  16)      0.06  0.000001   -0.00      0.06   
   147. D(C  11,N  10,C   9,C   8)   -179.77  0.000001    0.01   -179.76   
   148. D(N  15,C  11,N  10,H  27)   -179.92  0.000002   -0.00   -179.92   
   149. D(N  15,C  11,N  10,C   9)     -0.01 -0.000001    0.00     -0.01   
   150. D(C  12,C  11,N  10,H  27)      0.12  0.000001   -0.01      0.11   
   151. D(C  12,C  11,N  10,C   9)   -179.97 -0.000001   -0.00   -179.97   
   152. D(H  28,C  12,C  11,N  10)   -178.68 -0.000002   -0.01   -178.70   
   153. D(C  14,C  12,C  11,N  15)   -143.20 -0.000007   -0.02   -143.22   
   154. D(C  14,C  12,C  11,N  10)     36.76 -0.000007   -0.01     36.74   
   155. D(C  13,C  12,C  11,N  15)    146.30  0.000019   -0.03    146.26   
   156. D(C  13,C  12,C  11,N  10)    -33.75  0.000019   -0.03    -33.78   
   157. D(H  29,C  13,C  12,H  28)      2.71  0.000014   -0.01      2.70   
   158. D(H  29,C  13,C  12,C  14)    109.45  0.000005   -0.01    109.44   
   159. D(H  29,C  13,C  12,C  11)   -140.41 -0.000009   -0.00   -140.42   
   160. D(C  14,C  13,C  12,H  28)   -106.74  0.000009    0.00   -106.74   
   161. D(H  30,C  13,C  12,C  11)      1.45  0.000013    0.02      1.48   
   162. D(C  14,C  13,C  12,C  11)    110.13 -0.000014    0.01    110.14   
   163. D(C  12,C  14,C  13,H  29)   -106.18  0.000024   -0.02   -106.21   
   164. D(H  32,C  14,C  12,C  11)    140.31  0.000003   -0.00    140.31   
   165. D(H  31,C  14,C  12,H  28)   -144.32 -0.000002   -0.04   -144.36   
   166. D(H  31,C  14,C  12,C  13)    108.71  0.000002   -0.03    108.68   
   167. D(H  31,C  14,C  12,C  11)     -1.55  0.000003   -0.04     -1.59   
   168. D(C  13,C  14,C  12,H  28)    106.96 -0.000005   -0.01    106.95   
   169. D(C  12,C  14,C  13,H  30)    107.26 -0.000010    0.02    107.27   
   170. D(C  13,C  14,C  12,C  11)   -110.27  0.000001   -0.00   -110.27   
   171. D(H  32,C  14,C  13,C  12)    106.15 -0.000038    0.02    106.18   
   172. D(H  31,C  14,C  13,H  30)      0.05 -0.000009    0.01      0.06   
   173. D(H  31,C  14,C  13,H  29)    146.61  0.000025   -0.04    146.58   
   174. D(H  31,C  14,C  13,C  12)   -107.20  0.000000   -0.01   -107.22   
   175. D(C  16,N  15,C  11,C  12)    179.91  0.000000    0.00    179.92   
   176. D(C  16,N  15,C  11,N  10)     -0.05  0.000000   -0.00     -0.05   
   177. D(C  17,C  16,N  15,C  11)    179.98 -0.000000   -0.01    179.97   
   178. D(C   9,C  16,N  15,C  11)      0.09  0.000001   -0.00      0.09   
   179. D(C  17,C  16,C   9,N  10)   -180.00 -0.000000    0.01   -179.99   
   180. D(C  17,C  16,C   9,C   8)     -0.15  0.000000    0.00     -0.14   
   181. D(N  15,C  16,C   9,N  10)     -0.09 -0.000001    0.00     -0.09   
   182. D(N  15,C  16,C   9,C   8)    179.76 -0.000001   -0.01    179.75   
   183. D(H  33,C  17,C  16,N  15)     -0.35  0.000000   -0.00     -0.35   
   184. D(H  33,C  17,C  16,C   9)    179.53 -0.000001   -0.01    179.52   
   185. D(C   6,C  17,C  16,N  15)   -179.94  0.000001    0.01   -179.94   
   186. D(C   6,C  17,C  16,C   9)     -0.06  0.000000   -0.00     -0.06   
   187. D(H  33,C  17,C   6,C   7)   -179.32  0.000000    0.01   -179.30   
   188. D(H  33,C  17,C   6,C   5)      0.58  0.000001   -0.00      0.58   
   189. D(C  16,C  17,C   6,C   7)      0.27 -0.000001    0.00      0.27   
   190. D(C  16,C  17,C   6,C   5)   -179.84 -0.000000   -0.01   -179.85   
   191. D(C  19,N  18,C   5,C   6)   -179.93  0.000001   -0.00   -179.93   
   192. D(C  19,N  18,C   5,N   4)     -0.01  0.000002    0.00     -0.01   
   193. D(C  20,C  19,N  18,C   5)   -179.93 -0.000002    0.01   -179.92   
   194. D(C   3,C  19,N  18,C   5)      0.03 -0.000001    0.00      0.03   
   195. D(C  20,C  19,C   3,N   4)    179.92  0.000001   -0.01    179.92   
   196. D(C  20,C  19,C   3,C   2)     -0.14 -0.000000   -0.00     -0.14   
   197. D(N  18,C  19,C   3,N   4)     -0.05 -0.000001   -0.00     -0.05   
   198. D(N  18,C  19,C   3,C   2)    179.89 -0.000002    0.00    179.90   
   199. D(H  34,C  20,C  19,N  18)      0.02  0.000001   -0.00      0.02   
   200. D(H  34,C  20,C  19,C   3)   -179.94 -0.000001    0.00   -179.94   
   201. D(C   0,C  20,C  19,N  18)   -179.94  0.000002   -0.01   -179.95   
   202. D(C   0,C  20,C  19,C   3)      0.10  0.000000    0.00      0.10   
   203. D(H  34,C  20,C   0,H  21)      0.02  0.000001   -0.00      0.01   
   204. D(H  34,C  20,C   0,C   1)   -179.98  0.000001   -0.00   -179.98   
   205. D(C  19,C  20,C   0,H  21)    179.98 -0.000000   -0.00    179.98   
   206. D(C  19,C  20,C   0,C   1)     -0.02 -0.000000   -0.00     -0.02   
    ----------------------------------------------------------------------------

Geometry step timings:
Preparation and reading OPT file:      0.000 s ( 0.000 %)
Internal coordinates            :      0.000 s ( 0.000 %)
B/P matrices and projection     :      0.004 s (33.333 %)
Hessian update/contruction      :      0.002 s (16.667 %)
Making the step                 :      0.003 s (25.000 %)
Converting the step to Cartesian:      0.000 s ( 0.000 %)
Storing new data                :      0.000 s ( 0.000 %)
Checking convergence            :      0.000 s ( 0.000 %)
Final printing                  :      0.003 s (25.000 %)
Total time                      :      0.012 s

Time for energy+gradient        :    235.034 s
Time for complete geometry iter :    235.144 s

         *************************************************************
         *                GEOMETRY OPTIMIZATION CYCLE   9            *
         *************************************************************
---------------------------------
CARTESIAN COORDINATES (ANGSTROEM)
---------------------------------
  C     -6.593614   -0.185910   -0.595297
  C     -6.469366    0.697550    0.500654
  C     -5.219440    1.059248    1.008398
  C     -4.098540    0.505478    0.380803
  N     -2.743098    0.629590    0.601291
  C     -2.091557   -0.149137   -0.331060
  C     -0.630187   -0.263684   -0.404250
  C     -0.066580   -1.008813   -1.474665
  C      1.308485   -1.164201   -1.620549
  C      2.124227   -0.553557   -0.661745
  N      3.489878   -0.493943   -0.486109
  C      3.732722    0.252939    0.648334
  C      5.081286    0.541115    1.164285
  C      6.212106   -0.463462    1.028309
  C      6.247765    0.800210    0.225517
  N      2.617296    0.677590    1.213837
  C      1.587543    0.193824    0.421656
  C      0.202047    0.339823    0.552679
  N     -2.942055   -0.767217   -1.137675
  C     -4.203804   -0.384390   -0.724882
  C     -5.472336   -0.734828   -1.218087
  H     -7.591681   -0.442300   -0.960093
  H     -7.372051    1.106873    0.961540
  H     -5.121886    1.741707    1.855545
  H     -2.312565    1.211085    1.311321
  H     -0.747750   -1.464205   -2.194388
  H      1.728647   -1.737966   -2.449118
  H      4.182772   -0.926511   -1.088231
  H      5.044353    1.128673    2.084070
  H      6.887444   -0.561982    1.882597
  H      5.993681   -1.401775    0.509528
  H      6.053158    0.738173   -0.849449
  H      6.947773    1.587957    0.517233
  H     -0.197370    0.909841    1.393894
  H     -5.567402   -1.417794   -2.065692

----------------------------
CARTESIAN COORDINATES (A.U.)
----------------------------
  NO LB      ZA    FRAG     MASS         X           Y           Z
   0 C     6.0000    0    12.011  -12.460125   -0.351320   -1.124948
   1 C     6.0000    0    12.011  -12.225331    1.318179    0.946099
   2 C     6.0000    0    12.011   -9.863312    2.001688    1.905597
   3 C     6.0000    0    12.011   -7.745119    0.955214    0.719613
   4 N     7.0000    0    14.007   -5.183703    1.189752    1.136275
   5 C     6.0000    0    12.011   -3.952470   -0.281828   -0.625613
   6 C     6.0000    0    12.011   -1.190881   -0.498290   -0.763922
   7 C     6.0000    0    12.011   -0.125817   -1.906380   -2.786712
   8 C     6.0000    0    12.011    2.472678   -2.200021   -3.062394
   9 C     6.0000    0    12.011    4.014207   -1.046072   -1.250516
  10 N     7.0000    0    14.007    6.594915   -0.933416   -0.918613
  11 C     6.0000    0    12.011    7.053822    0.477986    1.225175
  12 C     6.0000    0    12.011    9.602239    1.022559    2.200179
  13 C     6.0000    0    12.011   11.739179   -0.875817    1.943222
  14 C     6.0000    0    12.011   11.806565    1.512177    0.426166
  15 N     7.0000    0    14.007    4.945973    1.280459    2.293820
  16 C     6.0000    0    12.011    3.000021    0.366275    0.796813
  17 C     6.0000    0    12.011    0.381813    0.642173    1.044412
  18 N     7.0000    0    14.007   -5.559679   -1.449830   -2.149895
  19 C     6.0000    0    12.011   -7.944039   -0.726392   -1.369829
  20 C     6.0000    0    12.011  -10.341217   -1.388623   -2.301851
  21 H     1.0000    0     1.008  -14.346198   -0.835826   -1.814313
  22 H     1.0000    0     1.008  -13.931157    2.091686    1.817048
  23 H     1.0000    0     1.008   -9.678961    3.291350    3.506472
  24 H     1.0000    0     1.008   -4.370114    2.288618    2.478038
  25 H     1.0000    0     1.008   -1.413042   -2.766946   -4.146792
  26 H     1.0000    0     1.008    3.266670   -3.284279   -4.628162
  27 H     1.0000    0     1.008    7.904293   -1.750851   -2.056459
  28 H     1.0000    0     1.008    9.532445    2.132883    3.938321
  29 H     1.0000    0     1.008   13.015383   -1.061991    3.557592
  30 H     1.0000    0     1.008   11.326415   -2.648971    0.962868
  31 H     1.0000    0     1.008   11.438811    1.394945   -1.605226
  32 H     1.0000    0     1.008   13.129388    3.000804    0.977428
  33 H     1.0000    0     1.008   -0.372976    1.719350    2.634079
  34 H     1.0000    0     1.008  -10.520865   -2.679242   -3.903592

--------------------------------
INTERNAL COORDINATES (ANGSTROEM)
--------------------------------
 C      0   0   0     0.000000000000     0.00000000     0.00000000
 C      1   0   0     1.413169760740     0.00000000     0.00000000
 C      2   1   0     1.396762383601   121.49892730     0.00000000
 C      3   2   1     1.398911672221   116.83599857     0.00000000
 N      4   3   2     1.378855847918   132.86624616   180.01894699
 C      5   4   3     1.378477012041   107.79564570   180.10613026
 C      6   5   4     1.467678614068   123.26000071   179.90269314
 C      7   6   5     1.420794922263   118.26045563   185.05676787
 C      8   7   6     1.391484817789   121.97538281   179.83122402
 C      9   8   7     1.399152033832   117.10120197     0.07737418
 N     10   9   8     1.378189501852   133.15161881   179.92632573
 C     11  10   9     1.379770946016   107.61361738   180.24021956
 C     12  11  10     1.472370662934   123.72895696   180.02780927
 C     13  12  11     1.518689454608   121.40947938   326.22420316
 C     14  13  12     1.497535436654    60.49834615   110.13961703
 N     12  11  10     1.320717909492   112.17576026     0.00000000
 C     16  12  11     1.386352428289   105.69145797   359.95111675
 C     17  16  12     1.399314959439   130.20556817   179.96901861
 N      6   5   4     1.325140640375   111.82910774     0.00000000
 C     19   6   5     1.381653191971   105.96328190     0.00000000
 C      1   2   3     1.395149364534   121.43286200   359.97364807
 H      1   2   3     1.093137538035   119.05887072   179.97594259
 H      2   1   3     1.093069131676   119.24162202   180.01526553
 H      3   2   1     1.092211226978   121.57978891   180.01799190
 H      5   4   3     1.013724906053   125.52978635   358.73846497
 H      8   7   6     1.090585261750   117.93176730   359.91274771
 H      9   8   7     1.091910791408   121.23102388   180.11923009
 H     11  10   9     1.014774498622   125.62926550     0.15440098
 H     13  12  11     1.092059524638   111.68290634   181.30153284
 H     14  13  12     1.093432885685   116.71393408   219.58208381
 H     14  13  12     1.094200213871   117.45487788     1.47507993
 H     15  14  13     1.094199861367   118.33168645   252.78436228
 H     15  14  13     1.093459912904   118.69464042   106.17654175
 H     18  17  16     1.091831830740   119.26324965   359.64921553
 H     21   1   2     1.092663779316   121.48523115   180.01622588

---------------------------
INTERNAL COORDINATES (A.U.)
---------------------------
 C      0   0   0     0.000000000000     0.00000000     0.00000000
 C      1   0   0     2.670503828537     0.00000000     0.00000000
 C      2   1   0     2.639498379168   121.49892730     0.00000000
 C      3   2   1     2.643559946043   116.83599857     0.00000000
 N      4   3   2     2.605659930721   132.86624616   180.01894699
 C      5   4   3     2.604944034663   107.79564570   180.10613026
 C      6   5   4     2.773510633201   123.26000071   179.90269314
 C      7   6   5     2.684913295543   118.26045563   185.05676787
 C      8   7   6     2.629525225130   121.97538281   179.83122402
 C      9   8   7     2.644014163661   117.10120197     0.07737418
 N     10   9   8     2.604400719146   133.15161881   179.92632573
 C     11  10   9     2.607389215511   107.61361738   180.24021956
 C     12  11  10     2.782377320565   123.72895696   180.02780927
 C     13  12  11     2.869907151683   121.40947938   326.22420316
 C     14  13  12     2.829931851118    60.49834615   110.13961703
 N     12  11  10     2.495795149104   112.17576026     0.00000000
 C     16  12  11     2.619826414563   105.69145797   359.95111675
 C     17  16  12     2.644322048439   130.20556817   179.96901861
 N      6   5   4     2.504152899238   111.82910774     0.00000000
 C     19   6   5     2.610946144883   105.96328190     0.00000000
 C      1   2   3     2.636450214883   121.43286200   359.97364807
 H      1   2   3     2.065730573595   119.05887072   179.97594259
 H      2   1   3     2.065601304311   119.24162202   180.01526553
 H      3   2   1     2.063980099382   121.57978891   180.01799190
 H      5   4   3     1.915662447575   125.52978635   358.73846497
 H      8   7   6     2.060907470399   117.93176730   359.91274771
 H      9   8   7     2.063412358434   121.23102388   180.11923009
 H     11  10   9     1.917645890083   125.62926550     0.15440098
 H     13  12  11     2.063693423507   111.68290634   181.30153284
 H     14  13  12     2.066288699768   116.71393408   219.58208381
 H     14  13  12     2.067738739895   117.45487788     1.47507993
 H     15  14  13     2.067738073758   118.33168645   252.78436228
 H     15  14  13     2.066339773811   118.69464042   106.17654175
 H     18  17  16     2.063263144397   119.26324965   359.64921553
 H     21   1   2     2.064835299363   121.48523115   180.01622588

------------------------------------------------------------------------------
                   ___                                                        
                  /   \      - P O W E R E D   B Y -                         
                 /     \                                                     
                 |  |  |   _    _      __       _____    __    __             
                 |  |  |  | |  | |    /  \     |  _  \  |  |  /  |          
                  \  \/   | |  | |   /    \    | | | |  |  | /  /          
                 / \  \   | |__| |  /  /\  \   | |_| |  |  |/  /          
                |  |  |   |  __  | /  /__\  \  |    /   |      \           
                |  |  |   | |  | | |   __   |  |    \   |  |\   \          
                \     /   | |  | | |  |  |  |  | |\  \  |  | \   \       
                 \___/    |_|  |_| |__|  |__|  |_| \__\ |__|  \__/        
                                                                              
                      - O R C A' S   B I G   F R I E N D -                    
                                      &                                       
                       - I N T E G R A L  F E E D E R -                       
                                                                              
 v1 FN, 2020, v2 2021, v3 2022-2024                                           
------------------------------------------------------------------------------


----------------------
SHARK INTEGRAL PACKAGE
----------------------

Number of atoms                             ...     35
Number of basis functions                   ...    364
Number of shells                            ...    168
Maximum angular momentum                    ...      2
Integral batch strategy                     ... SHARK/LIBINT Hybrid
RI-J (if used) integral strategy            ... SPLIT-RIJ (Revised 2003 algorithm where possible)
Printlevel                                  ...      1
Contraction scheme used                     ... SEGMENTED contraction
Prescreening option                         ... SCHWARTZ
   Thresh                                   ... 2.500e-11
   Tcut                                     ... 2.500e-12
   Tpresel                                  ... 2.500e-12 
Coulomb Range Separation                    ... NOT USED
Exchange Range Separation                   ... NOT USED
Multipole approximations                    ... NOT USED
Finite Nucleus Model                        ... NOT USED
CABS basis                                  ... NOT available
Auxiliary Coulomb fitting basis             ... AVAILABLE
   # of basis functions in Aux-J            ...   1183
   # of shells in Aux-J                     ...    385
   Maximum angular momentum in Aux-J        ...      4
Auxiliary J/K fitting basis                 ... NOT available
Auxiliary Correlation fitting basis         ... NOT available
Auxiliary 'external' fitting basis          ... NOT available

Checking pre-screening integrals            ... done (  0.0 sec) Dimension = 168
   => SHARK Basis and OBASIS are compatible. Storing Pre-screening
Shell pair information
Shell pair cut-off parameter TPreSel        ...   2.5e-12
Total number of shell pairs                 ...     14196
Shell pairs after pre-screening             ...      9242
Total number of primitive shell pairs       ...     52318
Primitive shell pairs kept                  ...     22451
          la=0 lb=0:   2749 shell pairs
          la=1 lb=0:   3402 shell pairs
          la=1 lb=1:   1092 shell pairs
          la=2 lb=0:   1139 shell pairs
          la=2 lb=1:    729 shell pairs
          la=2 lb=2:    131 shell pairs

Checking whether 4 symmetric matrices of dimension 364 fit in memory
:Max Core in MB      =   2000.00
 MB in use           =     13.66
 MB left             =   1986.34
 MB needed           =      2.03
 Data fit in memory  = YES
Calculating RI/J V-Matrix + Cholesky decomp.... done (  0.1 sec)
Calculating Nuclear repulsion               ... done (  0.0 sec) ENN=   1446.992027688743 Eh

Diagonalization of the overlap matrix:
Smallest eigenvalue                        ... 2.371e-04
Time for diagonalization                   ...    0.011 sec
Threshold for overlap eigenvalues          ... 1.000e-07
Number of eigenvalues below threshold      ... 0
Time for construction of square roots      ...    0.007 sec
Total time needed                          ...    0.018 sec

-------------------
DFT GRID GENERATION
-------------------

General Integration Accuracy     IntAcc      ... 4.388
Radial Grid Type                 RadialGrid  ... OptM3 with GC (2021)
Angular Grid (max. ang.)         AngularGrid ... 4 (Lebedev-302)
Angular grid pruning method      GridPruning ... 4 (adaptive)
Weight generation scheme         WeightScheme... mBecke (2022)
Basis function cutoff            BFCut       ... 1.0000e-11
Integration weight cutoff        WCut        ... 1.0000e-14
Partially contracted basis set               ... off
Rotationally invariant grid construction     ... off
Angular grids for H and He will be reduced by one unit

Total number of grid points                  ...   170611
Total number of batches                      ...     2686
Average number of points per batch           ...       63
Average number of grid points per atom       ...     4875

--------------------
COSX GRID GENERATION
--------------------

GRIDX 1
-------
General Integration Accuracy     IntAcc      ... 3.816
Radial Grid Type                 RadialGrid  ... OptM3 with GC (2021)
Angular Grid (max. ang.)         AngularGrid ... 1 (Lebedev-50)
Angular grid pruning method      GridPruning ... 4 (adaptive)
Weight generation scheme         WeightScheme... mBecke (2022)
Basis function cutoff            BFCut       ... 1.0000e-11
Integration weight cutoff        WCut        ... 1.0000e-14
Partially contracted basis set               ... on
Rotationally invariant grid construction     ... off
Angular grids for H and He will be reduced by one unit

Total number of grid points                  ...    21667
Total number of batches                      ...      189
Average number of points per batch           ...      114
Average number of grid points per atom       ...      619
UseSFitting                                  ... on

GRIDX 2
-------
General Integration Accuracy     IntAcc      ... 4.020
Radial Grid Type                 RadialGrid  ... OptM3 with GC (2021)
Angular Grid (max. ang.)         AngularGrid ... 2 (Lebedev-110)
Angular grid pruning method      GridPruning ... 4 (adaptive)
Weight generation scheme         WeightScheme... mBecke (2022)
Basis function cutoff            BFCut       ... 1.0000e-11
Integration weight cutoff        WCut        ... 1.0000e-14
Partially contracted basis set               ... on
Rotationally invariant grid construction     ... off
Angular grids for H and He will be reduced by one unit

Total number of grid points                  ...    47668
Total number of batches                      ...      391
Average number of points per batch           ...      121
Average number of grid points per atom       ...     1362
UseSFitting                                  ... on

GRIDX 3
-------
General Integration Accuracy     IntAcc      ... 4.338
Radial Grid Type                 RadialGrid  ... OptM3 with GC (2021)
Angular Grid (max. ang.)         AngularGrid ... 3 (Lebedev-194)
Angular grid pruning method      GridPruning ... 4 (adaptive)
Weight generation scheme         WeightScheme... mBecke (2022)
Basis function cutoff            BFCut       ... 1.0000e-11
Integration weight cutoff        WCut        ... 1.0000e-14
Partially contracted basis set               ... on
Rotationally invariant grid construction     ... off
Angular grids for H and He will be reduced by one unit

Total number of grid points                  ...   104543
Total number of batches                      ...      835
Average number of points per batch           ...      125
Average number of grid points per atom       ...     2987
UseSFitting                                  ... on
Grids setup in   3.9 sec
Initializing property integral containers    ... done (  0.0 sec)

SHARK setup successfully completed in   4.3 seconds

Maximum memory used throughout the entire STARTUP-calculation: 70.5 MB
Occupation numbers will be reassigned to an Aufbau configuration
             **** ENERGY FILE WAS UPDATED (C:\Users\jabreumiranda\Radioprotection_Pipeline_Project\06_Quantum_DFT_ORCA\CHEMBL4952776_neutral_opt.en.tmp) ****
Finished Guess after   0.2 sec
Maximum memory used throughout the entire GUESS-calculation: 24.9 MB
--------------------
CPCM SOLVATION MODEL
--------------------
CPCM parameters:
  Epsilon                                         ...      80.1510
  Refrac                                          ...       1.3328
  Rsolv                                           ...       1.3000
  Surface type                                    ... GAUSSIAN VDW
  Discretization scheme                           ... Constant charge density
    Threshold for H atoms                         ...       5.0000 (charges/Ang^2)
    Threshold for non-H atoms                     ...       5.0000 (charges/Ang^2)
  Epsilon function type                           ...         CPCM
Solvent:                                          ... WATER
Radii:
  Scheme                                          ... Element-dependent radii
  Radius for C  used is    3.8550 Bohr (=   2.0400 Ang.)
  Radius for N  used is    3.5149 Bohr (=   1.8600 Ang.)
  Radius for H  used is    2.4944 Bohr (=   1.3200 Ang.)
Calculating surface                               ...        done! (  0.0s)
Cavity surface points                             ...         3190
Cavity Volume                                     ...    2198.1631
Cavity Surface-area                               ...    1135.5426
Calculating surface distance matrix               ...        done! (  0.1s)
Performing Cholesky decomposition & store         ...        done! (  0.4s)
Overall time for CPCM initialization              ...                 0.5s

----------------------------------------D-I-I-S--------------------------------------------
Iteration    Energy (Eh)           Delta-E    RMSDP     MaxDP     DIISErr   Damp  Time(sec)
-------------------------------------------------------------------------------------------
               ***  Starting incremental Fock matrix formation  ***
                              *** Initializing SOSCF ***
---------------------------------------S-O-S-C-F--------------------------------------
Iteration    Energy (Eh)           Delta-E    RMSDP     MaxDP     MaxGrad    Time(sec)
--------------------------------------------------------------------------------------
    1    -874.1299166615369813     0.00e+00  3.35e-05  1.14e-03  1.42e-04    20.2
               *** Restarting incremental Fock matrix formation ***
    2    -874.1299397134905576    -2.31e-05  1.47e-05  4.20e-04  1.91e-04    20.2
    3    -874.1299426839975695    -2.97e-06  3.23e-06  9.94e-05  2.82e-05    12.0
    4    -874.1299427157111950    -3.17e-08  1.58e-06  6.66e-05  2.34e-05    10.2
    5    -874.1299427463588927    -3.06e-08  8.92e-07  2.52e-05  1.06e-05     9.1
    6    -874.1299427476999426    -1.34e-09  3.77e-07  1.34e-05  3.12e-06     8.3
                 **** Energy Check signals convergence ****

               *****************************************************
               *                     SUCCESS                       *
               *           SCF CONVERGED AFTER   6 CYCLES          *
               *****************************************************

Recomputing exchange energy using gridx3       ... done (   30.878 sec)
Old exchange energy                            :    -23.883212848 Eh
New exchange energy                            :    -23.883248644 Eh
Exchange energy change after final integration :     -0.000035796 Eh
Total energy after final integration           :   -874.129978546 Eh
             **** ENERGY FILE WAS UPDATED (C:\Users\jabreumiranda\Radioprotection_Pipeline_Project\06_Quantum_DFT_ORCA\CHEMBL4952776_neutral_opt.en.tmp) ****

----------------
TOTAL SCF ENERGY
----------------

Total Energy       :       -874.12997854605624 Eh          -23786.28599 eV

Components:
Nuclear Repulsion  :       1446.99202768874306 Eh           39374.65484 eV
Electronic Energy  :      -2321.08810520442512 Eh          -63160.01834 eV
One Electron Energy:      -4056.32465575328160 Eh         -110378.20540 eV
Two Electron Energy:       1735.23655054885671 Eh           47218.18707 eV
CPCM Dielectric    :         -0.03386523443246 Eh              -0.92152 eV

Virial components:
Potential Energy   :      -1739.14510392417105 Eh          -47324.54421 eV
Kinetic Energy     :        865.01512537811482 Eh           23538.25822 eV
Virial Ratio       :          2.01053721825264

DFT components:
N(Alpha)           :       72.000034899572 electrons
N(Beta)            :       72.000034899572 electrons
N(Total)           :      144.000069799144 electrons
E(X)               :      -94.890385513709 Eh       
E(C)               :       -5.772390005400 Eh       
E(XC)              :     -100.662775519109 Eh       

CPCM Solvation Model Properties:
Surface-charge          :         -0.02850076937884
Corrected charge        :         -0.00000000000000
Outlying charge corr.   :          0.00004239119888 Eh               0.00115 eV
Free-energy (cav+disp)  :  This term is not implemented in the current solvation scheme

---------------
SCF CONVERGENCE
---------------

  Last Energy change         ...    1.3410e-09  Tolerance :   1.0000e-08
  Last MAX-Density change    ...    1.3436e-05  Tolerance :   1.0000e-07
  Last RMS-Density change    ...    3.7654e-07  Tolerance :   5.0000e-09
  Last DIIS Error            ...    1.3096e-03  Tolerance :   5.0000e-07
  Last Orbital Gradient      ...    3.1153e-06  Tolerance :   1.0000e-05
  Last Orbital Rotation      ...    6.2097e-06  Tolerance :   1.0000e-05


Total SCF time: 0 days 0 hours 1 min 58 sec 
Finished LeanSCF after 119.3 sec

Maximum memory used throughout the entire LEANSCF-calculation: 98.7 MB

------------------------------------------------------------------------------
                         ORCA PROPERTY INTEGRAL CALCULATIONS
------------------------------------------------------------------------------

GBWName                                   ... C:\Users\jabreumiranda\Radioprotection_Pipeline_Project\06_Quantum_DFT_ORCA\CHEMBL4952776_neutral_opt.gbw
Number of atoms                           ...     35
Number of basis functions                 ...    364
Max core memory                           ...   2000 MB

Dipole integrals                          ... YES
Quadrupole integrals                      ...  NO
Linear momentum integrals                 ...  NO
Angular momentum integrals                ...  NO
Higher moments length integrals           ...  NO
Higher moments velocity integrals         ...  NO
Kinetic energy integrals                  ...  NO
GIAO right hand sides                     ...  NO
GIAO dipole derivative integrals          ...  NO
SOC integrals                             ...  NO
EPR diamagnetic integrals (GIAO)          ...  NO
EPR gauge integrals                       ...  NO
Field gradient integrals                  ...  NO (   0 nuclei)
Spin-dipole/Fermi contact integrals       ...  NO (   0 nuclei)
Contact density integrals                 ...  NO (   0 nuclei)
Nucleus-orbit integrals                   ...  NO (   0 nuclei)
Geometric perturbations                   ...  NO (  35 nuclei)

Choice of electric origin   ... Center of mass
Position of electric origin ... ( -0.5950, -0.0351, -0.0662) 
Choice of magnetic origin   ... GIAO
Position of magnetic origin ... (  0.0000,  0.0000,  0.0000) 

Calculating integrals                     ... Electric Dipole (Length)     done (  0.0 sec)

Property integrals calculated in   0.0 sec

Maximum memory used throughout the entire PROPINT-calculation: 24.0 MB


-------------------------------------------------------------------------------
                          DFT DISPERSION CORRECTION                            
                                                                               
                              DFTD3 V3.1  Rev 1                                
                          USING Becke-Johnson damping                          
-------------------------------------------------------------------------------
-------------------------   ----------------
Dispersion correction           -0.074562726
-------------------------   ----------------


-------------------------   --------------------
FINAL SINGLE POINT ENERGY      -874.204541272266
-------------------------   --------------------

------------------------------------------------------------------------------
                         ORCA SCF GRADIENT CALCULATION
------------------------------------------------------------------------------

Nuc. rep. gradient        (SHARK) ... done (  0.0 sec)
HCore & Overlap gradient  (SHARK) ... done (  0.9 sec)
Split-RIJ-J gradient      (SHARK) ... done (  5.0 sec)
COSX-gradient                     ... done ( 76.7 sec)
XC gradient                       ... done ( 12.8 sec)
CPCM gradient                     ... done (  4.6 sec)
Dispersion correction             ... done (  0.1 sec)

-------------------
DISPERSION GRADIENT
-------------------

   1   C   :   -0.000079264   -0.000093773   -0.000119533
   2   C   :   -0.000061456    0.000097322    0.000117447
   3   C   :   -0.000296858    0.000200955    0.000233499
   4   C   :    0.001332671   -0.000837456   -0.000974791
   5   N   :   -0.000482495   -0.000239572   -0.000328697
   6   C   :   -0.004140734    0.000206549    0.000050274
   7   C   :    0.000465831   -0.000033755   -0.000003540
   8   C   :    0.000259348   -0.000068095   -0.000085992
   9   C   :   -0.000024145   -0.000218775   -0.000328946
  10   C   :    0.000823835    0.000857749    0.001341093
  11   N   :   -0.000690328    0.000158080    0.000200888
  12   C   :   -0.003820788   -0.000629391   -0.001183344
  13   C   :    0.000337844    0.000158458    0.000262110
  14   C   :    0.000404568   -0.000088199    0.000172890
  15   C   :    0.000413656    0.000180472    0.000001682
  16   N   :   -0.000146965   -0.000033580   -0.000053097
  17   C   :    0.003070752   -0.000293942   -0.000234988
  18   C   :    0.000055474    0.000025588    0.000058748
  19   N   :   -0.000293039    0.000111563    0.000134663
  20   C   :    0.002635647    0.000724254    0.001030242
  21   C   :   -0.000253364   -0.000155950   -0.000203397
  22   H   :   -0.000252681   -0.000065259   -0.000092783
  23   H   :   -0.000229119    0.000102952    0.000115799
  24   H   :   -0.000090329    0.000200154    0.000242677
  25   H   :    0.000038750    0.000213767    0.000253781
  26   H   :    0.000008619   -0.000181218   -0.000271666
  27   H   :    0.000028151   -0.000186830   -0.000276743
  28   H   :    0.000104215   -0.000187479   -0.000268239
  29   H   :    0.000069814    0.000145045    0.000231512
  30   H   :    0.000191494   -0.000113695    0.000135806
  31   H   :    0.000252526   -0.000245365    0.000045927
  32   H   :    0.000265252    0.000138504   -0.000198049
  33   H   :    0.000198669    0.000163056   -0.000041049
  34   H   :    0.000021537    0.000169467    0.000265151
  35   H   :   -0.000117088   -0.000181598   -0.000229335

Difference to translation invariance:
           :    0.0000000000   -0.0000000000    0.0000000000

Difference to rotation invariance:
           :    0.0000000000    0.0000000000   -0.0000000000

Norm of the Dispersion gradient    ...    0.0078888210
RMS gradient                       ...    0.0007698701
MAX gradient                       ...    0.0041407344

------------------
CARTESIAN GRADIENT
------------------

   1   C   :   -0.000018386   -0.000014319   -0.000010174
   2   C   :    0.000011778   -0.000006380   -0.000005494
   3   C   :   -0.000008243    0.000028388    0.000018041
   4   C   :   -0.000003266   -0.000063824   -0.000038708
   5   N   :   -0.000020304    0.000068644   -0.000013708
   6   C   :    0.000106676   -0.000016021    0.000024916
   7   C   :   -0.000089223    0.000004072   -0.000007156
   8   C   :    0.000073634   -0.000014988   -0.000007008
   9   C   :   -0.000037623   -0.000018868   -0.000028228
  10   C   :   -0.000042763    0.000033124    0.000037045
  11   N   :    0.000070198    0.000005242    0.000018734
  12   C   :    0.000037131   -0.000011844   -0.000037668
  13   C   :   -0.000043070   -0.000021008    0.000036865
  14   C   :    0.000004074   -0.000030125    0.000022881
  15   C   :    0.000004376    0.000043137   -0.000058139
  16   N   :   -0.000017654    0.000013637    0.000009937
  17   C   :    0.000024560   -0.000032612   -0.000048239
  18   C   :    0.000041003    0.000020508    0.000032962
  19   N   :   -0.000078990   -0.000019835   -0.000030748
  20   C   :    0.000041057    0.000038981    0.000064110
  21   C   :    0.000016338   -0.000008671   -0.000003985
  22   H   :   -0.000005422    0.000004783    0.000014063
  23   H   :   -0.000002821    0.000001113    0.000001801
  24   H   :    0.000014553    0.000002556    0.000000956
  25   H   :   -0.000006550   -0.000018104    0.000019542
  26   H   :   -0.000030652    0.000011083    0.000019614
  27   H   :    0.000017449    0.000000660    0.000007011
  28   H   :   -0.000027698   -0.000015377   -0.000020373
  29   H   :    0.000033804    0.000005176   -0.000008231
  30   H   :   -0.000007880    0.000026760    0.000005964
  31   H   :   -0.000012557    0.000020154   -0.000031195
  32   H   :   -0.000006867   -0.000030104   -0.000001068
  33   H   :   -0.000007749   -0.000000678    0.000020246
  34   H   :   -0.000024582   -0.000000380   -0.000009234
  35   H   :   -0.000004328   -0.000004879    0.000004668

Difference to translation invariance:
           :    0.0000000000   -0.0000000000   -0.0000000000

Difference to rotation invariance:
           :   -0.0002179346    0.0009839598    0.0000701081

Norm of the Cartesian gradient     ...    0.0003125006
RMS gradient                       ...    0.0000304969
MAX gradient                       ...    0.0001066760

-------
TIMINGS
-------

Total SCF gradient time     ....      100.115 sec

Densities                   ....       0.003 sec  (  0.0%)
One electron gradient       ....       0.852 sec  (  0.9%)
RI-J Coulomb gradient       ....       5.022 sec  (  5.0%)
COSX gradient               ....      76.737 sec  ( 76.6%)
XC gradient                 ....      12.817 sec  ( 12.8%)
CPCM gradient               ....       4.617 sec  (  4.6%)
   A-Matrix (El+Nuc)        ....       0.509 sec  (  0.5%)
   Potential                ....       4.108 sec  (  4.1%)

Maximum memory used throughout the entire SCFGRAD-calculation: 53.0 MB
------------------------------------------------------------------------------
                         ORCA GEOMETRY RELAXATION STEP
------------------------------------------------------------------------------

Reading the OPT-File                    .... done
Getting information on internals        .... done
Copying old internal coords+grads       .... done
Making the new internal coordinates     .... (2022 redundants) done
Validating the new internal coordinates .... (2022 redundants) done
Calculating the B-matrix                .... done
Calculating the G,G- and P matrices     .... done
Transforming gradient to internals      .... done
Projecting the internal gradient        .... done
Number of atoms                         ....  35
Number of internal coordinates          .... 206
Current Energy                          ....  -874.204541272 Eh
Current gradient norm                   ....     0.000312501 Eh/bohr
Maximum allowed component of the step   ....  0.300
Current trust radius                    ....  0.311
Updating the Hessian (BFGS)             .... done
Forming the augmented Hessian           .... done
Diagonalizing the augmented Hessian     .... done
Last element of RFO vector              ....  0.999996052
Lowest eigenvalues of augmented Hessian:
 -0.000000211  0.004746635  0.009478515  0.020977002  0.021911037
Length of the computed step             ....  0.002810081
The final length of the internal step   ....  0.002810081
Converting the step to Cartesian space:
 Initial RMS(Int)=    0.0001957876
Transforming coordinates:
 Iter   0:  RMS(Cart)=    0.0009981425 RMS(Int)=    0.0001957856
done
Storing new coordinates                 .... done
The predicted energy change is          ....    -0.000000106
Previously predicted energy change      ....    -0.000000422
Actually observed energy change         ....    -0.000004110
Ratio of predicted to observed change   ....     9.744880540
New trust radius                        ....     0.207407407

                                .--------------------.
          ----------------------|Geometry convergence|-------------------------
          Item                value                   Tolerance       Converged
          ---------------------------------------------------------------------
          Energy change      -0.0000041096            0.0000050000      YES
          RMS gradient        0.0000131447            0.0001000000      YES
          MAX gradient        0.0000502408            0.0003000000      YES
          RMS step            0.0001957876            0.0020000000      YES
          MAX step            0.0009954722            0.0040000000      YES
          -------------------------------------------------------------------------
          ........................................................
          Max(Bonds)      0.0001      Max(Angles)    0.02
          Max(Dihed)        0.06      Max(Improp)    0.00
          ---------------------------------------------------------------------

                    ***********************HURRAY********************
                    ***        THE OPTIMIZATION HAS CONVERGED     ***
                    *************************************************


    ---------------------------------------------------------------------------
                         Redundant Internal Coordinates

                          --- Optimized Parameters ---  
                            (Angstroem and degrees)

        Definition                    OldVal   dE/dq     Step     FinalVal
    ----------------------------------------------------------------------------
     1. B(C   1,C   0)                1.4132  0.000005  0.0000    1.4132   
     2. B(C   2,C   1)                1.3968  0.000009 -0.0000    1.3967   
     3. B(C   3,C   2)                1.3989  0.000005  0.0000    1.3989   
     4. B(N   4,C   3)                1.3789 -0.000003  0.0000    1.3789   
     5. B(C   5,N   4)                1.3785  0.000029 -0.0000    1.3784   
     6. B(C   6,C   5)                1.4677 -0.000043  0.0001    1.4677   
     7. B(C   7,C   6)                1.4208  0.000011 -0.0000    1.4208   
     8. B(C   8,C   7)                1.3915 -0.000015  0.0000    1.3915   
     9. B(C   9,C   8)                1.3992  0.000016 -0.0000    1.3991   
    10. B(N  10,C   9)                1.3782  0.000032 -0.0000    1.3782   
    11. B(C  11,N  10)                1.3798 -0.000000 -0.0000    1.3797   
    12. B(C  12,C  11)                1.4724 -0.000028  0.0000    1.4724   
    13. B(C  13,C  12)                1.5187 -0.000020  0.0000    1.5187   
    14. B(C  14,C  13)                1.4975  0.000008  0.0000    1.4976   
    15. B(C  14,C  12)                1.5196 -0.000003 -0.0000    1.5195   
    16. B(N  15,C  11)                1.3207  0.000015  0.0000    1.3207   
    17. B(C  16,N  15)                1.3864 -0.000008  0.0000    1.3864   
    18. B(C  16,C   9)                1.4214 -0.000032  0.0000    1.4214   
    19. B(C  17,C  16)                1.3993  0.000006 -0.0000    1.3993   
    20. B(C  17,C   6)                1.4045  0.000014 -0.0000    1.4044   
    21. B(N  18,C   5)                1.3251  0.000050 -0.0000    1.3251   
    22. B(C  19,N  18)                1.3817 -0.000031  0.0000    1.3817   
    23. B(C  19,C   3)                1.4232 -0.000047  0.0001    1.4233   
    24. B(C  20,C  19)                1.4054  0.000007  0.0000    1.4054   
    25. B(C  20,C   0)                1.3951  0.000007 -0.0000    1.3951   
    26. B(H  21,C   0)                1.0931  0.000000  0.0000    1.0931   
    27. B(H  22,C   1)                1.0931  0.000002 -0.0000    1.0931   
    28. B(H  23,C   2)                1.0922  0.000001 -0.0000    1.0922   
    29. B(H  24,N   4)                1.0137 -0.000001  0.0000    1.0137   
    30. B(H  25,C   7)                1.0906  0.000001 -0.0000    1.0906   
    31. B(H  26,C   8)                1.0919  0.000001 -0.0000    1.0919   
    32. B(H  27,N  10)                1.0148 -0.000001  0.0000    1.0148   
    33. B(H  28,C  12)                1.0921 -0.000003  0.0000    1.0921   
    34. B(H  29,C  13)                1.0934 -0.000000  0.0000    1.0934   
    35. B(H  30,C  13)                1.0942 -0.000000  0.0000    1.0942   
    36. B(H  31,C  14)                1.0942 -0.000001  0.0000    1.0942   
    37. B(H  32,C  14)                1.0935  0.000001  0.0000    1.0935   
    38. B(H  33,C  17)                1.0918  0.000002 -0.0000    1.0918   
    39. B(H  34,C  20)                1.0927  0.000002 -0.0000    1.0927   
    40. A(C   1,C   0,H  21)          119.06 -0.000005    0.00    119.06   
    41. A(C  20,C   0,H  21)          119.51  0.000019   -0.01    119.50   
    42. A(C   1,C   0,C  20)          121.43 -0.000014    0.00    121.44   
    43. A(C   0,C   1,H  22)          119.24 -0.000007    0.00    119.24   
    44. A(C   2,C   1,H  22)          119.26 -0.000001   -0.00    119.26   
    45. A(C   0,C   1,C   2)          121.50  0.000008   -0.00    121.50   
    46. A(C   3,C   2,H  23)          121.58 -0.000008    0.00    121.59   
    47. A(C   1,C   2,H  23)          121.58  0.000019   -0.01    121.57   
    48. A(C   1,C   2,C   3)          116.84 -0.000010    0.00    116.84   
    49. A(C   2,C   3,C  19)          122.47  0.000008   -0.00    122.47   
    50. A(N   4,C   3,C  19)          104.67  0.000013   -0.00    104.67   
    51. A(C   2,C   3,N   4)          132.87 -0.000021    0.00    132.87   
    52. A(C   3,N   4,H  24)          125.53 -0.000004    0.00    125.53   
    53. A(C   5,N   4,H  24)          126.66  0.000010   -0.00    126.66   
    54. A(C   3,N   4,C   5)          107.80 -0.000006   -0.00    107.80   
    55. A(C   6,C   5,N  18)          124.91  0.000008   -0.00    124.91   
    56. A(N   4,C   5,C   6)          123.26  0.000018   -0.00    123.26   
    57. A(N   4,C   5,N  18)          111.83 -0.000026    0.01    111.83   
    58. A(C   5,C   6,C   7)          118.26  0.000003    0.00    118.26   
    59. A(C   7,C   6,C  17)          120.24 -0.000010    0.00    120.24   
    60. A(C   5,C   6,C  17)          121.50  0.000007   -0.00    121.50   
    61. A(C   8,C   7,H  25)          120.09  0.000030   -0.01    120.08   
    62. A(C   6,C   7,H  25)          117.93 -0.000045    0.02    117.95   
    63. A(C   6,C   7,C   8)          121.98  0.000014   -0.00    121.97   
    64. A(C   7,C   8,H  26)          121.23  0.000028   -0.01    121.22   
    65. A(C   7,C   8,C   9)          117.10 -0.000014    0.00    117.10   
    66. A(C   9,C   8,H  26)          121.67 -0.000014    0.01    121.67   
    67. A(N  10,C   9,C  16)          104.73  0.000009   -0.00    104.73   
    68. A(C   8,C   9,C  16)          122.12  0.000009    0.00    122.12   
    69. A(C   8,C   9,N  10)          133.15 -0.000017    0.00    133.15   
    70. A(C  11,N  10,H  27)          126.76  0.000042   -0.01    126.74   
    71. A(C   9,N  10,H  27)          125.63 -0.000027    0.01    125.64   
    72. A(C   9,N  10,C  11)          107.61 -0.000015    0.00    107.62   
    73. A(N  10,C  11,C  12)          123.73  0.000027   -0.00    123.72   
    74. A(C  12,C  11,N  15)          124.10 -0.000026    0.00    124.10   
    75. A(N  10,C  11,N  15)          112.18 -0.000001    0.00    112.18   
    76. A(C  13,C  12,C  14)           59.06  0.000008    0.00     59.06   
    77. A(C  14,C  12,H  28)          117.04 -0.000014    0.01    117.05   
    78. A(C  13,C  12,H  28)          117.16 -0.000010    0.00    117.16   
    79. A(C  11,C  12,H  28)          111.68  0.000025   -0.01    111.68   
    80. A(C  11,C  12,C  13)          121.41 -0.000008   -0.01    121.40   
    81. A(C  11,C  12,C  14)          121.33 -0.000015    0.00    121.33   
    82. A(C  12,C  13,C  14)           60.50  0.000001   -0.00     60.50   
    83. A(C  14,C  13,H  30)          118.31 -0.000028    0.01    118.32   
    84. A(C  12,C  13,H  30)          117.45 -0.000011    0.01    117.46   
    85. A(C  14,C  13,H  29)          118.70 -0.000003   -0.00    118.69   
    86. A(C  12,C  13,H  29)          116.71 -0.000009    0.01    116.72   
    87. A(H  29,C  13,H  30)          114.61  0.000031   -0.01    114.60   
    88. A(C  12,C  14,H  32)          116.71 -0.000015    0.01    116.72   
    89. A(C  13,C  14,H  31)          118.33 -0.000006    0.01    118.34   
    90. A(C  12,C  14,H  31)          117.43  0.000001    0.00    117.44   
    91. A(C  12,C  14,C  13)           60.44 -0.000009    0.00     60.44   
    92. A(H  31,C  14,H  32)          114.63  0.000021   -0.01    114.62   
    93. A(C  13,C  14,H  32)          118.69 -0.000009   -0.00    118.69   
    94. A(C  11,N  15,C  16)          105.69  0.000001   -0.00    105.69   
    95. A(N  15,C  16,C  17)          130.21 -0.000016    0.00    130.21   
    96. A(C   9,C  16,C  17)          120.01  0.000010   -0.00    120.00   
    97. A(C   9,C  16,N  15)          109.79  0.000006   -0.00    109.79   
    98. A(C   6,C  17,C  16)          118.56 -0.000009    0.00    118.56   
    99. A(C  16,C  17,H  33)          119.26  0.000032   -0.01    119.25   
   100. A(C   6,C  17,H  33)          122.18 -0.000023    0.01    122.19   
   101. A(C   5,N  18,C  19)          105.96 -0.000003   -0.00    105.96   
   102. A(N  18,C  19,C  20)          130.57 -0.000031    0.01    130.57   
   103. A(C   3,C  19,C  20)          119.69  0.000010   -0.00    119.69   
   104. A(C   3,C  19,N  18)          109.74  0.000022   -0.00    109.74   
   105. A(C   0,C  20,C  19)          118.08 -0.000001   -0.00    118.08   
   106. A(C  19,C  20,H  34)          120.44  0.000004   -0.00    120.44   
   107. A(C   0,C  20,H  34)          121.49 -0.000002    0.00    121.49   
   108. D(H  22,C   1,C   0,C  20)    179.99 -0.000001    0.00    179.99   
   109. D(C   2,C   1,C   0,C  20)     -0.03 -0.000001    0.00     -0.02   
   110. D(H  22,C   1,C   0,H  21)     -0.01 -0.000000    0.00     -0.01   
   111. D(C   2,C   1,C   0,H  21)    179.98 -0.000000    0.00    179.98   
   112. D(C   3,C   2,C   1,H  22)    179.98 -0.000000    0.00    179.98   
   113. D(H  23,C   2,C   1,H  22)      0.00  0.000000   -0.00      0.00   
   114. D(H  23,C   2,C   1,C   0)   -179.98 -0.000000    0.00   -179.98   
   115. D(C   3,C   2,C   1,C   0)     -0.01 -0.000000    0.00     -0.01   
   116. D(C  19,C   3,C   2,H  23)   -179.93  0.000002   -0.00   -179.94   
   117. D(C  19,C   3,C   2,C   1)      0.09  0.000002   -0.01      0.09   
   118. D(N   4,C   3,C   2,H  23)     -0.01 -0.000001    0.00     -0.01   
   119. D(N   4,C   3,C   2,C   1)   -179.98 -0.000001    0.00   -179.98   
   120. D(H  24,N   4,C   3,C   2)     -1.26  0.000013   -0.03     -1.29   
   121. D(H  24,N   4,C   3,C  19)    178.67  0.000011   -0.02    178.65   
   122. D(C   5,N   4,C   3,C   2)   -179.89 -0.000001   -0.00   -179.89   
   123. D(C   5,N   4,C   3,C  19)      0.04 -0.000003    0.01      0.05   
   124. D(N  18,C   5,N   4,H  24)   -178.64 -0.000008    0.02   -178.62   
   125. D(N  18,C   5,N   4,C   3)     -0.02  0.000005   -0.01     -0.03   
   126. D(C   6,C   5,N   4,H  24)      1.29 -0.000011    0.02      1.31   
   127. D(C   6,C   5,N   4,C   3)    179.90  0.000003   -0.00    179.90   
   128. D(C  17,C   6,C   5,N   4)      5.17  0.000007   -0.06      5.11   
   129. D(C   7,C   6,C   5,N  18)      4.97  0.000003   -0.04      4.93   
   130. D(C  17,C   6,C   5,N  18)   -174.91  0.000004   -0.05   -174.96   
   131. D(C   7,C   6,C   5,N   4)   -174.94  0.000006   -0.05   -175.00   
   132. D(H  25,C   7,C   6,C  17)    179.80  0.000001   -0.00    179.80   
   133. D(H  25,C   7,C   6,C   5)     -0.09  0.000002   -0.01     -0.09   
   134. D(C   8,C   7,C   6,C  17)     -0.28 -0.000001    0.00     -0.28   
   135. D(C   8,C   7,C   6,C   5)    179.83  0.000000   -0.00    179.83   
   136. D(C   9,C   8,C   7,H  25)    179.99  0.000001   -0.00    179.99   
   137. D(C   9,C   8,C   7,C   6)      0.08  0.000003   -0.01      0.07   
   138. D(H  26,C   8,C   7,C   6)   -179.88  0.000001   -0.00   -179.88   
   139. D(H  26,C   8,C   7,H  25)      0.04 -0.000001    0.00      0.04   
   140. D(C  16,C   9,C   8,H  26)   -179.91 -0.000000   -0.00   -179.91   
   141. D(C  16,C   9,C   8,C   7)      0.13 -0.000002    0.00      0.14   
   142. D(N  10,C   9,C   8,H  26)     -0.12 -0.000002    0.01     -0.11   
   143. D(N  10,C   9,C   8,C   7)    179.93 -0.000004    0.01    179.94   
   144. D(H  27,N  10,C   9,C  16)    179.97 -0.000001    0.00    179.98   
   145. D(H  27,N  10,C   9,C   8)      0.15  0.000000   -0.00      0.15   
   146. D(C  11,N  10,C   9,C  16)      0.06  0.000000   -0.00      0.06   
   147. D(C  11,N  10,C   9,C   8)   -179.76  0.000002   -0.01   -179.77   
   148. D(N  15,C  11,N  10,H  27)   -179.92  0.000001   -0.00   -179.92   
   149. D(N  15,C  11,N  10,C   9)     -0.01 -0.000000    0.00     -0.01   
   150. D(C  12,C  11,N  10,H  27)      0.11  0.000000   -0.00      0.11   
   151. D(C  12,C  11,N  10,C   9)   -179.97 -0.000001    0.00   -179.97   
   152. D(H  28,C  12,C  11,N  10)   -178.70 -0.000003   -0.03   -178.73   
   153. D(C  14,C  12,C  11,N  15)   -143.22  0.000005   -0.04   -143.26   
   154. D(C  14,C  12,C  11,N  10)     36.74  0.000006   -0.04     36.70   
   155. D(C  13,C  12,C  11,N  15)    146.26  0.000005   -0.04    146.22   
   156. D(C  13,C  12,C  11,N  10)    -33.78  0.000006   -0.04    -33.82   
   157. D(H  29,C  13,C  12,H  28)      2.70  0.000010   -0.02      2.68   
   158. D(H  29,C  13,C  12,C  14)    109.44  0.000000   -0.01    109.43   
   159. D(H  29,C  13,C  12,C  11)   -140.42 -0.000012   -0.00   -140.42   
   160. D(C  14,C  13,C  12,H  28)   -106.74  0.000009   -0.01   -106.76   
   161. D(H  30,C  13,C  12,C  11)      1.48  0.000016   -0.01      1.47   
   162. D(C  14,C  13,C  12,C  11)    110.14 -0.000012    0.01    110.14   
   163. D(C  12,C  14,C  13,H  29)   -106.21  0.000009   -0.01   -106.22   
   164. D(H  32,C  14,C  12,C  11)    140.31  0.000007    0.01    140.32   
   165. D(H  31,C  14,C  12,H  28)   -144.36 -0.000014    0.01   -144.35   
   166. D(H  31,C  14,C  12,C  13)    108.68 -0.000011    0.01    108.69   
   167. D(H  31,C  14,C  12,C  11)     -1.59 -0.000011    0.02     -1.57   
   168. D(C  13,C  14,C  12,H  28)    106.95 -0.000003    0.00    106.96   
   169. D(C  12,C  14,C  13,H  30)    107.27 -0.000001    0.00    107.27   
   170. D(C  13,C  14,C  12,C  11)   -110.27  0.000000    0.01   -110.26   
   171. D(H  32,C  14,C  13,C  12)    106.18 -0.000019    0.01    106.19   
   172. D(H  31,C  14,C  13,H  30)      0.06 -0.000001   -0.00      0.06   
   173. D(H  31,C  14,C  13,H  29)    146.58  0.000009   -0.01    146.56   
   174. D(H  31,C  14,C  13,C  12)   -107.22  0.000000   -0.00   -107.22   
   175. D(C  16,N  15,C  11,C  12)    179.92  0.000001   -0.00    179.91   
   176. D(C  16,N  15,C  11,N  10)     -0.05  0.000000   -0.00     -0.05   
   177. D(C  17,C  16,N  15,C  11)    179.97 -0.000001    0.00    179.97   
   178. D(C   9,C  16,N  15,C  11)      0.09 -0.000000    0.00      0.09   
   179. D(C  17,C  16,C   9,N  10)   -179.99  0.000001   -0.00   -179.99   
   180. D(C  17,C  16,C   9,C   8)     -0.14 -0.000001    0.00     -0.14   
   181. D(N  15,C  16,C   9,N  10)     -0.09 -0.000000    0.00     -0.09   
   182. D(N  15,C  16,C   9,C   8)    179.75 -0.000002    0.01    179.76   
   183. D(H  33,C  17,C  16,N  15)     -0.35  0.000001   -0.00     -0.35   
   184. D(H  33,C  17,C  16,C   9)    179.52  0.000001    0.00    179.53   
   185. D(C   6,C  17,C  16,N  15)   -179.94  0.000004   -0.01   -179.95   
   186. D(C   6,C  17,C  16,C   9)     -0.06  0.000003   -0.01     -0.07   
   187. D(H  33,C  17,C   6,C   7)   -179.30 -0.000000   -0.01   -179.31   
   188. D(H  33,C  17,C   6,C   5)      0.58 -0.000001   -0.00      0.58   
   189. D(C  16,C  17,C   6,C   7)      0.27 -0.000002    0.00      0.27   
   190. D(C  16,C  17,C   6,C   5)   -179.85 -0.000003    0.01   -179.84   
   191. D(C  19,N  18,C   5,C   6)   -179.93 -0.000003    0.00   -179.93   
   192. D(C  19,N  18,C   5,N   4)     -0.01 -0.000005    0.01      0.00   
   193. D(C  20,C  19,N  18,C   5)   -179.92  0.000003   -0.01   -179.93   
   194. D(C   3,C  19,N  18,C   5)      0.03  0.000003   -0.01      0.03   
   195. D(C  20,C  19,C   3,N   4)    179.92  0.000000   -0.00    179.91   
   196. D(C  20,C  19,C   3,C   2)     -0.14 -0.000002    0.01     -0.14   
   197. D(N  18,C  19,C   3,N   4)     -0.05 -0.000000    0.00     -0.05   
   198. D(N  18,C  19,C   3,C   2)    179.90 -0.000002    0.01    179.90   
   199. D(H  34,C  20,C  19,N  18)      0.02  0.000001   -0.00      0.02   
   200. D(H  34,C  20,C  19,C   3)   -179.94  0.000001   -0.00   -179.94   
   201. D(C   0,C  20,C  19,N  18)   -179.95  0.000001   -0.00   -179.95   
   202. D(C   0,C  20,C  19,C   3)      0.10  0.000000   -0.00      0.10   
   203. D(H  34,C  20,C   0,H  21)      0.01 -0.000000    0.00      0.01   
   204. D(H  34,C  20,C   0,C   1)   -179.98  0.000001   -0.00   -179.99   
   205. D(C  19,C  20,C   0,H  21)    179.98  0.000000   -0.00    179.98   
   206. D(C  19,C  20,C   0,C   1)     -0.02  0.000001   -0.00     -0.02   
    ----------------------------------------------------------------------------

Geometry step timings:
Preparation and reading OPT file:      0.010 s (47.619 %)
Internal coordinates            :      0.000 s ( 0.000 %)
B/P matrices and projection     :      0.003 s (14.286 %)
Hessian update/contruction      :      0.002 s ( 9.524 %)
Making the step                 :      0.003 s (14.286 %)
Converting the step to Cartesian:      0.000 s ( 0.000 %)
Storing new data                :      0.000 s ( 0.000 %)
Checking convergence            :      0.001 s ( 4.762 %)
Final printing                  :      0.002 s ( 9.524 %)
Total time                      :      0.021 s
                 *******************************************************
                 *** FINAL ENERGY EVALUATION AT THE STATIONARY POINT ***
                 ***               (AFTER    9 CYCLES)               ***
                 *******************************************************
---------------------------------
CARTESIAN COORDINATES (ANGSTROEM)
---------------------------------
  C     -6.593611   -0.185231   -0.595785
  C     -6.469369    0.697390    0.500855
  C     -5.219464    1.058519    1.009004
  C     -4.098563    0.505087    0.381105
  N     -2.743101    0.628792    0.601844
  C     -2.091624   -0.149280   -0.331030
  C     -0.630196   -0.263911   -0.404139
  C     -0.066570   -1.009226   -1.474409
  C      1.308517   -1.164629   -1.620207
  C      2.124216   -0.553714   -0.661555
  N      3.489858   -0.493861   -0.485983
  C      3.732683    0.253359    0.648209
  C      5.081320    0.541814    1.163886
  C      6.211910   -0.463167    1.028751
  C      6.247836    0.799876    0.224915
  N      2.617254    0.678022    1.213718
  C      1.587487    0.193903    0.421717
  C      0.201975    0.339781    0.552693
  N     -2.942025   -0.766778   -1.138111
  C     -4.203840   -0.384046   -0.725269
  C     -5.472390   -0.733902   -1.218854
  H     -7.591642   -0.441238   -0.960956
  H     -7.372028    1.106504    0.961974
  H     -5.122002    1.740328    1.856683
  H     -2.312484    1.209936    1.312114
  H     -0.747493   -1.464888   -2.194191
  H      1.728592   -1.738575   -2.448692
  H      4.182930   -0.926379   -1.087940
  H      5.044351    1.130057    2.083240
  H      6.887420   -0.561154    1.882971
  H      5.993314   -1.401982    0.510940
  H      6.053252    0.737176   -0.850025
  H      6.948176    1.587606    0.515887
  H     -0.197305    0.910042    1.393804
  H     -5.567485   -1.416234   -2.066964

----------------------------
CARTESIAN COORDINATES (A.U.)
----------------------------
  NO LB      ZA    FRAG     MASS         X           Y           Z
   0 C     6.0000    0    12.011  -12.460118   -0.350035   -1.125871
   1 C     6.0000    0    12.011  -12.225336    1.317876    0.946478
   2 C     6.0000    0    12.011   -9.863358    2.000311    1.906742
   3 C     6.0000    0    12.011   -7.745162    0.954475    0.720185
   4 N     7.0000    0    14.007   -5.183710    1.188246    1.137320
   5 C     6.0000    0    12.011   -3.952596   -0.282098   -0.625556
   6 C     6.0000    0    12.011   -1.190897   -0.498719   -0.763713
   7 C     6.0000    0    12.011   -0.125798   -1.907161   -2.786229
   8 C     6.0000    0    12.011    2.472740   -2.200830   -3.061748
   9 C     6.0000    0    12.011    4.014186   -1.046368   -1.250158
  10 N     7.0000    0    14.007    6.594875   -0.933262   -0.918375
  11 C     6.0000    0    12.011    7.053748    0.478780    1.224938
  12 C     6.0000    0    12.011    9.602303    1.023880    2.199425
  13 C     6.0000    0    12.011   11.738809   -0.875258    1.944057
  14 C     6.0000    0    12.011   11.806700    1.511547    0.425027
  15 N     7.0000    0    14.007    4.945894    1.281277    2.293595
  16 C     6.0000    0    12.011    2.999915    0.366423    0.796930
  17 C     6.0000    0    12.011    0.381677    0.642094    1.044438
  18 N     7.0000    0    14.007   -5.559621   -1.449001   -2.150718
  19 C     6.0000    0    12.011   -7.944106   -0.725741   -1.370560
  20 C     6.0000    0    12.011  -10.341319   -1.386874   -2.303300
  21 H     1.0000    0     1.008  -14.346123   -0.833819   -1.815943
  22 H     1.0000    0     1.008  -13.931114    2.090990    1.817867
  23 H     1.0000    0     1.008   -9.679181    3.288744    3.508623
  24 H     1.0000    0     1.008   -4.369962    2.286448    2.479536
  25 H     1.0000    0     1.008   -1.412556   -2.768238   -4.146420
  26 H     1.0000    0     1.008    3.266565   -3.285430   -4.627357
  27 H     1.0000    0     1.008    7.904591   -1.750602   -2.055908
  28 H     1.0000    0     1.008    9.532443    2.135498    3.936753
  29 H     1.0000    0     1.008   13.015338   -1.060427    3.558300
  30 H     1.0000    0     1.008   11.325721   -2.649362    0.965536
  31 H     1.0000    0     1.008   11.438989    1.393061   -1.606314
  32 H     1.0000    0     1.008   13.130151    3.000141    0.974885
  33 H     1.0000    0     1.008   -0.372852    1.719730    2.633908
  34 H     1.0000    0     1.008  -10.521022   -2.676294   -3.905995

--------------------------------
INTERNAL COORDINATES (ANGSTROEM)
--------------------------------
 C      0   0   0     0.000000000000     0.00000000     0.00000000
 C      1   0   0     1.413178747602     0.00000000     0.00000000
 C      2   1   0     1.396743612941   121.49844729     0.00000000
 C      3   2   1     1.398915204373   116.83650737     0.00000000
 N      4   3   2     1.378878586391   132.86792077   180.02149798
 C      5   4   3     1.378431235448   107.79519047   180.10533986
 C      6   5   4     1.467738697259   123.25632751   179.89905640
 C      7   6   5     1.420790411267   118.26077770   185.00393216
 C      8   7   6     1.391499807192   121.97391149   179.82827965
 C      9   8   7     1.399140602526   117.10152892     0.07157006
 N     10   9   8     1.378181830659   133.15262300   179.93696602
 C     11  10   9     1.379744544012   107.61579119   180.23322852
 C     12  11  10     1.472396364570   123.72424159   180.02961100
 C     13  12  11     1.518710474264   121.40378478   326.18386793
 C     14  13  12     1.497571151636    60.49616707   110.14480757
 N     12  11  10     1.320727033099   112.17733974     0.00000000
 C     16  12  11     1.386383216292   105.68965869   359.94946401
 C     17  16  12     1.399313680449   130.20857002   179.97395799
 N      6   5   4     1.325091441280   111.83463456   359.96653203
 C     19   6   5     1.381701784851   105.96275054     0.00000000
 C      1   2   3     1.395130816095   121.43549454   359.97647598
 H      1   2   3     1.093139839248   119.06276327   179.97688597
 H      2   1   3     1.093068386993   119.24375217   180.01565718
 H      3   2   1     1.092209682581   121.57476015   180.01816241
 H      5   4   3     1.013727175398   125.53270478   358.71012121
 H      8   7   6     1.090582803719   117.94748195   359.90705083
 H      9   8   7     1.091908085377   121.22374187   180.11807887
 H     11  10   9     1.014776495579   125.63971035     0.15261538
 H     13  12  11     1.092066470974   111.67613636   181.27282833
 H     14  13  12     1.093438779071   116.72387939   219.57731592
 H     14  13  12     1.094206066637   117.46102868     1.46814604
 H     15  14  13     1.094207099416   118.34073053   252.78271370
 H     15  14  13     1.093462245248   118.69280219   106.18902015
 H     18  17  16     1.091828507143   119.25169225   359.64803276
 H     21   1   2     1.092661501618   121.48609021   180.01437554

---------------------------
INTERNAL COORDINATES (A.U.)
---------------------------
 C      0   0   0     0.000000000000     0.00000000     0.00000000
 C      1   0   0     2.670520811245     0.00000000     0.00000000
 C      2   1   0     2.639462907763   121.49844729     0.00000000
 C      3   2   1     2.643566620844   116.83650737     0.00000000
 N      4   3   2     2.605702900208   132.86792077   180.02149798
 C      5   4   3     2.604857529439   107.79519047   180.10533986
 C      6   5   4     2.773624173978   123.25632751   179.89905640
 C      7   6   5     2.684904770996   118.26077770   185.00393216
 C      8   7   6     2.629553550998   121.97391149   179.82827965
 C      9   8   7     2.643992561624   117.10152892     0.07157006
 N     10   9   8     2.604386222692   133.15262300   179.93696602
 C     11  10   9     2.607339322955   107.61579119   180.23322852
 C     12  11  10     2.782425889619   123.72424159   180.02961100
 C     13  12  11     2.869946873077   121.40378478   326.18386793
 C     14  13  12     2.829999342653    60.49616707   110.14480757
 N     12  11  10     2.495812390224   112.17733974     0.00000000
 C     16  12  11     2.619884595456   105.68965869   359.94946401
 C     17  16  12     2.644319631499   130.20857002   179.97395799
 N      6   5   4     2.504059926422   111.83463456   359.96653203
 C     19   6   5     2.611037972119   105.96275054     0.00000000
 C      1   2   3     2.636415163413   121.43549454   359.97647598
 H      1   2   3     2.065734922258   119.06276327   179.97688597
 H      2   1   3     2.065599897064   119.24375217   180.01565718
 H      3   2   1     2.063977180895   121.57476015   180.01816241
 H      5   4   3     1.915666736016   125.53270478   358.71012121
 H      8   7   6     2.060902825393   117.94748195   359.90705083
 H      9   8   7     2.063407244778   121.22374187   180.11807887
 H     11  10   9     1.917649663785   125.63971035     0.15261538
 H     13  12  11     2.063706550179   111.67613636   181.27282833
 H     14  13  12     2.066299836653   116.72387939   219.57731592
 H     14  13  12     2.067749800019   117.46102868     1.46814604
 H     15  14  13     2.067751751689   118.34073053   252.78271370
 H     15  14  13     2.066344181301   118.69280219   106.18902015
 H     18  17  16     2.063256863708   119.25169225   359.64803276
 H     21   1   2     2.064830995137   121.48609021   180.01437554

---------------------
BASIS SET INFORMATION
---------------------
There are 3 groups of distinct atoms

 Group   1 Type C   : 7s4p1d contracted to 3s2p1d pattern {511/31/1}
 Group   2 Type N   : 7s4p1d contracted to 3s2p1d pattern {511/31/1}
 Group   3 Type H   : 4s1p contracted to 2s1p pattern {31/1}

Atom   0C    basis set group =>   1
Atom   1C    basis set group =>   1
Atom   2C    basis set group =>   1
Atom   3C    basis set group =>   1
Atom   4N    basis set group =>   2
Atom   5C    basis set group =>   1
Atom   6C    basis set group =>   1
Atom   7C    basis set group =>   1
Atom   8C    basis set group =>   1
Atom   9C    basis set group =>   1
Atom  10N    basis set group =>   2
Atom  11C    basis set group =>   1
Atom  12C    basis set group =>   1
Atom  13C    basis set group =>   1
Atom  14C    basis set group =>   1
Atom  15N    basis set group =>   2
Atom  16C    basis set group =>   1
Atom  17C    basis set group =>   1
Atom  18N    basis set group =>   2
Atom  19C    basis set group =>   1
Atom  20C    basis set group =>   1
Atom  21H    basis set group =>   3
Atom  22H    basis set group =>   3
Atom  23H    basis set group =>   3
Atom  24H    basis set group =>   3
Atom  25H    basis set group =>   3
Atom  26H    basis set group =>   3
Atom  27H    basis set group =>   3
Atom  28H    basis set group =>   3
Atom  29H    basis set group =>   3
Atom  30H    basis set group =>   3
Atom  31H    basis set group =>   3
Atom  32H    basis set group =>   3
Atom  33H    basis set group =>   3
Atom  34H    basis set group =>   3
---------------------------------
AUXILIARY/J BASIS SET INFORMATION
---------------------------------
There are 3 groups of distinct atoms

 Group   1 Type C   : 12s5p4d2f1g contracted to 6s4p3d1f1g pattern {711111/2111/211/2/1}
 Group   2 Type N   : 12s5p4d2f1g contracted to 6s4p3d1f1g pattern {711111/2111/211/2/1}
 Group   3 Type H   : 5s2p1d contracted to 3s1p1d pattern {311/2/1}

Atom   0C    basis set group =>   1
Atom   1C    basis set group =>   1
Atom   2C    basis set group =>   1
Atom   3C    basis set group =>   1
Atom   4N    basis set group =>   2
Atom   5C    basis set group =>   1
Atom   6C    basis set group =>   1
Atom   7C    basis set group =>   1
Atom   8C    basis set group =>   1
Atom   9C    basis set group =>   1
Atom  10N    basis set group =>   2
Atom  11C    basis set group =>   1
Atom  12C    basis set group =>   1
Atom  13C    basis set group =>   1
Atom  14C    basis set group =>   1
Atom  15N    basis set group =>   2
Atom  16C    basis set group =>   1
Atom  17C    basis set group =>   1
Atom  18N    basis set group =>   2
Atom  19C    basis set group =>   1
Atom  20C    basis set group =>   1
Atom  21H    basis set group =>   3
Atom  22H    basis set group =>   3
Atom  23H    basis set group =>   3
Atom  24H    basis set group =>   3
Atom  25H    basis set group =>   3
Atom  26H    basis set group =>   3
Atom  27H    basis set group =>   3
Atom  28H    basis set group =>   3
Atom  29H    basis set group =>   3
Atom  30H    basis set group =>   3
Atom  31H    basis set group =>   3
Atom  32H    basis set group =>   3
Atom  33H    basis set group =>   3
Atom  34H    basis set group =>   3
------------------------------------------------------------------------------
                             ORCA STARTUP CALCULATIONS
                           -- RI-GTO INTEGRALS CHOSEN --
------------------------------------------------------------------------------
------------------------------------------------------------------------------
                   ___                                                        
                  /   \      - P O W E R E D   B Y -                         
                 /     \                                                     
                 |  |  |   _    _      __       _____    __    __             
                 |  |  |  | |  | |    /  \     |  _  \  |  |  /  |          
                  \  \/   | |  | |   /    \    | | | |  |  | /  /          
                 / \  \   | |__| |  /  /\  \   | |_| |  |  |/  /          
                |  |  |   |  __  | /  /__\  \  |    /   |      \           
                |  |  |   | |  | | |   __   |  |    \   |  |\   \          
                \     /   | |  | | |  |  |  |  | |\  \  |  | \   \       
                 \___/    |_|  |_| |__|  |__|  |_| \__\ |__|  \__/        
                                                                              
                      - O R C A' S   B I G   F R I E N D -                    
                                      &                                       
                       - I N T E G R A L  F E E D E R -                       
                                                                              
 v1 FN, 2020, v2 2021, v3 2022-2024                                           
------------------------------------------------------------------------------


----------------------
SHARK INTEGRAL PACKAGE
----------------------

Number of atoms                             ...     35
Number of basis functions                   ...    364
Number of shells                            ...    168
Maximum angular momentum                    ...      2
Integral batch strategy                     ... SHARK/LIBINT Hybrid
RI-J (if used) integral strategy            ... SPLIT-RIJ (Revised 2003 algorithm where possible)
Printlevel                                  ...      1
Contraction scheme used                     ... SEGMENTED contraction
Prescreening option                         ... SCHWARTZ
   Thresh                                   ... 2.500e-11
   Tcut                                     ... 2.500e-12
   Tpresel                                  ... 2.500e-12 
Coulomb Range Separation                    ... NOT USED
Exchange Range Separation                   ... NOT USED
Multipole approximations                    ... NOT USED
Finite Nucleus Model                        ... NOT USED
CABS basis                                  ... NOT available
Auxiliary Coulomb fitting basis             ... AVAILABLE
   # of basis functions in Aux-J            ...   1183
   # of shells in Aux-J                     ...    385
   Maximum angular momentum in Aux-J        ...      4
Auxiliary J/K fitting basis                 ... NOT available
Auxiliary Correlation fitting basis         ... NOT available
Auxiliary 'external' fitting basis          ... NOT available

Checking pre-screening integrals            ... done (  0.0 sec) Dimension = 168
   => SHARK Basis and OBASIS are compatible. Storing Pre-screening
Shell pair information
Shell pair cut-off parameter TPreSel        ...   2.5e-12
Total number of shell pairs                 ...     14196
Shell pairs after pre-screening             ...      9243
Total number of primitive shell pairs       ...     52318
Primitive shell pairs kept                  ...     22456
          la=0 lb=0:   2750 shell pairs
          la=1 lb=0:   3402 shell pairs
          la=1 lb=1:   1092 shell pairs
          la=2 lb=0:   1139 shell pairs
          la=2 lb=1:    729 shell pairs
          la=2 lb=2:    131 shell pairs

Checking whether 4 symmetric matrices of dimension 364 fit in memory
:Max Core in MB      =   2000.00
 MB in use           =     13.66
 MB left             =   1986.34
 MB needed           =      2.03
 Data fit in memory  = YES
Calculating RI/J V-Matrix + Cholesky decomp.... done (  0.1 sec)
Calculating Nuclear repulsion               ... done (  0.0 sec) ENN=   1446.988056211418 Eh

Diagonalization of the overlap matrix:
Smallest eigenvalue                        ... 2.371e-04
Time for diagonalization                   ...    0.011 sec
Threshold for overlap eigenvalues          ... 1.000e-07
Number of eigenvalues below threshold      ... 0
Time for construction of square roots      ...    0.007 sec
Total time needed                          ...    0.019 sec

-------------------
DFT GRID GENERATION
-------------------

General Integration Accuracy     IntAcc      ... 4.388
Radial Grid Type                 RadialGrid  ... OptM3 with GC (2021)
Angular Grid (max. ang.)         AngularGrid ... 4 (Lebedev-302)
Angular grid pruning method      GridPruning ... 4 (adaptive)
Weight generation scheme         WeightScheme... mBecke (2022)
Basis function cutoff            BFCut       ... 1.0000e-11
Integration weight cutoff        WCut        ... 1.0000e-14
Partially contracted basis set               ... off
Rotationally invariant grid construction     ... off
Angular grids for H and He will be reduced by one unit

Total number of grid points                  ...   170609
Total number of batches                      ...     2686
Average number of points per batch           ...       63
Average number of grid points per atom       ...     4875

--------------------
COSX GRID GENERATION
--------------------

GRIDX 1
-------
General Integration Accuracy     IntAcc      ... 3.816
Radial Grid Type                 RadialGrid  ... OptM3 with GC (2021)
Angular Grid (max. ang.)         AngularGrid ... 1 (Lebedev-50)
Angular grid pruning method      GridPruning ... 4 (adaptive)
Weight generation scheme         WeightScheme... mBecke (2022)
Basis function cutoff            BFCut       ... 1.0000e-11
Integration weight cutoff        WCut        ... 1.0000e-14
Partially contracted basis set               ... on
Rotationally invariant grid construction     ... off
Angular grids for H and He will be reduced by one unit

Total number of grid points                  ...    21667
Total number of batches                      ...      189
Average number of points per batch           ...      114
Average number of grid points per atom       ...      619
UseSFitting                                  ... on

GRIDX 2
-------
General Integration Accuracy     IntAcc      ... 4.020
Radial Grid Type                 RadialGrid  ... OptM3 with GC (2021)
Angular Grid (max. ang.)         AngularGrid ... 2 (Lebedev-110)
Angular grid pruning method      GridPruning ... 4 (adaptive)
Weight generation scheme         WeightScheme... mBecke (2022)
Basis function cutoff            BFCut       ... 1.0000e-11
Integration weight cutoff        WCut        ... 1.0000e-14
Partially contracted basis set               ... on
Rotationally invariant grid construction     ... off
Angular grids for H and He will be reduced by one unit

Total number of grid points                  ...    47668
Total number of batches                      ...      391
Average number of points per batch           ...      121
Average number of grid points per atom       ...     1362
UseSFitting                                  ... on

GRIDX 3
-------
General Integration Accuracy     IntAcc      ... 4.338
Radial Grid Type                 RadialGrid  ... OptM3 with GC (2021)
Angular Grid (max. ang.)         AngularGrid ... 3 (Lebedev-194)
Angular grid pruning method      GridPruning ... 4 (adaptive)
Weight generation scheme         WeightScheme... mBecke (2022)
Basis function cutoff            BFCut       ... 1.0000e-11
Integration weight cutoff        WCut        ... 1.0000e-14
Partially contracted basis set               ... on
Rotationally invariant grid construction     ... off
Angular grids for H and He will be reduced by one unit

Total number of grid points                  ...   104546
Total number of batches                      ...      835
Average number of points per batch           ...      125
Average number of grid points per atom       ...     2987
UseSFitting                                  ... on
Grids setup in   3.9 sec
Initializing property integral containers    ... done (  0.0 sec)

SHARK setup successfully completed in   4.3 seconds

Maximum memory used throughout the entire STARTUP-calculation: 70.5 MB
-------------------------------------------------------------------------------
                                 ORCA GUESS
                   Start orbitals & Density for SCF / CASSCF
-------------------------------------------------------------------------------

------------
SCF SETTINGS
------------
Hamiltonian:
 Density Functional     Method          .... DFT(GTOs)
 Exchange Functional    Exchange        .... B88
   X-Alpha parameter    XAlpha          ....  0.666667
   Becke's b parameter  XBeta           ....  0.004200
 Correlation Functional Correlation     .... LYP
 LDA part of GGA corr.  LDAOpt          .... VWN-5
 Gradients option       PostSCFGGA      .... off
 Hybrid DFT is turned on
   Fraction HF Exchange ScalHFX         ....  0.200000
   Scaling of DF-GGA-X  ScalDFX         ....  0.720000
   Scaling of DF-GGA-C  ScalDFC         ....  0.810000
   Scaling of DF-LDA-C  ScalLDAC        ....  1.000000
   Perturbative correction              ....  0.000000
   NL short-range parameter             ....  4.800000
 RI-approximation to the Coulomb term is turned on
   Number of AuxJ basis functions       .... 1183
   RIJ-COSX (HFX calculated with COS-X)).... on


General Settings:
 Integral files         IntName         .... C:\Users\jabreumiranda\Radioprotection_Pipeline_Project\06_Quantum_DFT_ORCA\CHEMBL4952776_neutral_opt
 Hartree-Fock type      HFTyp           .... RHF
 Total Charge           Charge          ....    0
 Multiplicity           Mult            ....    1
 Number of Electrons    NEL             ....  144
 Basis Dimension        Dim             ....  364
 Nuclear Repulsion      ENuc            ....   1446.9880562114 Eh

Convergence Acceleration:
 AO-DIIS                CNVDIIS         .... on
   Start iteration      DIISMaxIt       ....    12
   Startup error        DIISStart       ....  0.200000
   # of expansion vecs  DIISMaxEq       ....     5
   Bias factor          DIISBfac        ....   1.050
   Max. coefficient     DIISMaxC        ....  10.000
 MO-DIIS                CNVKDIIS        .... off
 Trust-Rad. Augm. Hess. CNVTRAH         .... auto
   Auto Start mean grad. ratio tolernc. ....  1.125000
   Auto Start start iteration           ....     1
   Auto Start num. interpolation iter.  ....    10
   Max. Number of Micro iterations      ....    24
   Max. Number of Macro iterations      .... Maxiter - #DIIS iter
   Number of Davidson start vectors     ....     2
   Converg. threshold    (grad. norm)   ....   1.000e-05
   Grad. Scal. Fac. for Micro threshold ....   0.100
   Minimum threshold for Micro iter.    ....   1.000e-02
   NR start threshold (gradient norm)   ....   1.000e-04
   Initial trust radius                 ....   0.400
   Minimum AH scaling param. (alpha)    ....   1.000
   Maximum AH scaling param. (alpha)    .... 1000.000
   Quad. conv. algorithm                .... NR
   White noise on init. David. guess    .... on
   Maximum white noise                  ....   0.010
   Pseudo random numbers                .... off
   Inactive MOs                         .... canonical
   Orbital update algorithm             .... Taylor
   Preconditioner                       .... Diag
   Full preconditioner red. dimension   ....   250
 SOSCF                 CNVSOSCF           .... on
   Start iteration     SOSCFMaxIt         ....   150
   Startup grad/error  SOSCFStart         ....  0.003300
   Hessian update      SOSCFHessUp        .... L-BFGS
   Autom. constraints  SOSCFAutoConstrain .... off
 Level Shifting         CNVShift        .... on
   Level shift para.    LevelShift      ....    0.2500
   Turn off err/grad.   ShiftErr        ....    0.0010
 Zerner damping         CNVZerner       .... off
 Static damping         CNVDamp         .... on
   Fraction old density DampFac         ....    0.7000
   Max. Damping (<1)    DampMax         ....    0.9800
   Min. Damping (>=0)   DampMin         ....    0.0000
   Turn off err/grad.   DampErr         ....    0.1000

SCF Procedure:
 Maximum # iterations   MaxIter         ....   125
 SCF integral mode      SCFMode         .... Direct
   Integral package                     .... SHARK and LIBINT hybrid scheme
 Reset frequency        DirectResetFreq ....    20
 Integral Threshold     Thresh          ....  2.500e-11 Eh
 Primitive CutOff       TCut            ....  2.500e-12 Eh

Convergence Tolerance:
 Convergence Check Mode ConvCheckMode   .... Total+1el-Energy
 Convergence forced     ConvForced      .... 0
 Energy Change          TolE            ....  1.000e-08 Eh
 1-El. energy change                    ....  1.000e-05 Eh
 Orbital Gradient       TolG            ....  1.000e-05
 Orbital Rotation angle TolX            ....  1.000e-05
 DIIS Error             TolErr          ....  5.000e-07

---------------------
INITIAL GUESS: MOREAD
---------------------
Guess MOs are being read from file: C:\Users\jabreumiranda\Radioprotection_Pipeline_Project\06_Quantum_DFT_ORCA\CHEMBL4952776_neutral_opt.gbw
Input Geometry matches current geometry (good)
Input basis set matches current basis set (good)
Occupation numbers will be reassigned to an Aufbau configuration
MOs were renormalized
MOs were reorthogonalized (Cholesky)
                      ------------------
                      INITIAL GUESS DONE (   0.1 sec)
                      ------------------
             **** ENERGY FILE WAS UPDATED (C:\Users\jabreumiranda\Radioprotection_Pipeline_Project\06_Quantum_DFT_ORCA\CHEMBL4952776_neutral_opt.en.tmp) ****
Finished Guess after   0.2 sec
Maximum memory used throughout the entire GUESS-calculation: 24.9 MB

-------------------------------------------------------------------------------------------
                                      ORCA LEAN-SCF
                              memory conserving SCF solver
-------------------------------------------------------------------------------------------

--------------------
CPCM SOLVATION MODEL
--------------------
CPCM parameters:
  Epsilon                                         ...      80.1510
  Refrac                                          ...       1.3328
  Rsolv                                           ...       1.3000
  Surface type                                    ... GAUSSIAN VDW
  Discretization scheme                           ... Constant charge density
    Threshold for H atoms                         ...       5.0000 (charges/Ang^2)
    Threshold for non-H atoms                     ...       5.0000 (charges/Ang^2)
  Epsilon function type                           ...         CPCM
Solvent:                                          ... WATER
Radii:
  Scheme                                          ... Element-dependent radii
  Radius for C  used is    3.8550 Bohr (=   2.0400 Ang.)
  Radius for N  used is    3.5149 Bohr (=   1.8600 Ang.)
  Radius for H  used is    2.4944 Bohr (=   1.3200 Ang.)
Calculating surface                               ...        done! (  0.0s)
Cavity surface points                             ...         3190
Cavity Volume                                     ...    2198.1665
Cavity Surface-area                               ...    1135.5291
Calculating surface distance matrix               ...        done! (  0.1s)
Performing Cholesky decomposition & store         ...        done! (  0.4s)
Overall time for CPCM initialization              ...                 0.5s

----------------------------------------D-I-I-S--------------------------------------------
Iteration    Energy (Eh)           Delta-E    RMSDP     MaxDP     DIISErr   Damp  Time(sec)
-------------------------------------------------------------------------------------------
               ***  Starting incremental Fock matrix formation  ***
                              *** Initializing SOSCF ***
---------------------------------------S-O-S-C-F--------------------------------------
Iteration    Energy (Eh)           Delta-E    RMSDP     MaxDP     MaxGrad    Time(sec)
--------------------------------------------------------------------------------------
    1    -874.1299413376889333     0.00e+00  9.15e-06  2.59e-04  4.15e-05    20.3
               *** Restarting incremental Fock matrix formation ***
    2    -874.1299432243515639    -1.89e-06  3.97e-06  1.14e-04  5.59e-05    20.1
    3    -874.1299434461377587    -2.22e-07  1.13e-06  4.22e-05  8.20e-06    10.2
    4    -874.1299434394097716     6.73e-09  5.94e-07  2.75e-05  1.05e-05     8.7
                 **** Energy Check signals convergence ****

               *****************************************************
               *                     SUCCESS                       *
               *           SCF CONVERGED AFTER   4 CYCLES          *
               *****************************************************

Recomputing exchange energy using gridx3       ... done (   30.895 sec)
Old exchange energy                            :    -23.883196550 Eh
New exchange energy                            :    -23.883231121 Eh
Exchange energy change after final integration :     -0.000034572 Eh
Total energy after final integration           :   -874.129978029 Eh
             **** ENERGY FILE WAS UPDATED (C:\Users\jabreumiranda\Radioprotection_Pipeline_Project\06_Quantum_DFT_ORCA\CHEMBL4952776_neutral_opt.en.tmp) ****

----------------
TOTAL SCF ENERGY
----------------

Total Energy       :       -874.12997802858331 Eh          -23786.28597 eV

Components:
Nuclear Repulsion  :       1446.98805621141787 Eh           39374.54677 eV
Electronic Energy  :      -2321.08413763329918 Eh          -63159.91037 eV
One Electron Energy:      -4056.31684664554905 Eh         -110377.99291 eV
Two Electron Energy:       1735.23270901225010 Eh           47218.08253 eV
CPCM Dielectric    :         -0.03386203495824 Eh              -0.92143 eV

Virial components:
Potential Energy   :      -1739.14478897037498 Eh          -47324.53564 eV
Kinetic Energy     :        865.01481094179178 Eh           23538.24967 eV
Virial Ratio       :          2.01053758498871

DFT components:
N(Alpha)           :       72.000034853155 electrons
N(Beta)            :       72.000034853155 electrons
N(Total)           :      144.000069706310 electrons
E(X)               :      -94.890326718984 Eh       
E(C)               :       -5.772385372453 Eh       
E(XC)              :     -100.662712091437 Eh       

CPCM Solvation Model Properties:
Surface-charge          :         -0.02850038493993
Corrected charge        :         -0.00000000000000
Outlying charge corr.   :          0.00004239001961 Eh               0.00115 eV
Free-energy (cav+disp)  :  This term is not implemented in the current solvation scheme

---------------
SCF CONVERGENCE
---------------

  Last Energy change         ...   -6.7280e-09  Tolerance :   1.0000e-08
  Last MAX-Density change    ...    2.7536e-05  Tolerance :   1.0000e-07
  Last RMS-Density change    ...    5.9411e-07  Tolerance :   5.0000e-09
  Last DIIS Error            ...    3.5647e-04  Tolerance :   5.0000e-07
  Last Orbital Gradient      ...    1.0507e-05  Tolerance :   1.0000e-05
  Last Orbital Rotation      ...    1.3372e-05  Tolerance :   1.0000e-05


----------------
ORBITAL ENERGIES
----------------

  NO   OCC          E(Eh)            E(eV) 
   0   2.0000     -14.378386      -391.2558 
   1   2.0000     -14.375207      -391.1693 
   2   2.0000     -14.308754      -389.3610 
   3   2.0000     -14.307490      -389.3266 
   4   2.0000     -10.258769      -279.1553 
   5   2.0000     -10.256346      -279.0894 
   6   2.0000     -10.226149      -278.2677 
   7   2.0000     -10.221263      -278.1347 
   8   2.0000     -10.211133      -277.8591 
   9   2.0000     -10.206972      -277.7458 
  10   2.0000     -10.205446      -277.7043 
  11   2.0000     -10.202619      -277.6274 
  12   2.0000     -10.196012      -277.4476 
  13   2.0000     -10.195926      -277.4453 
  14   2.0000     -10.195855      -277.4433 
  15   2.0000     -10.195814      -277.4422 
  16   2.0000     -10.191127      -277.3147 
  17   2.0000     -10.190995      -277.3111 
  18   2.0000     -10.186354      -277.1848 
  19   2.0000     -10.186305      -277.1835 
  20   2.0000     -10.183942      -277.1191 
  21   2.0000      -1.011035       -27.5117 
  22   2.0000      -1.007884       -27.4259 
  23   2.0000      -0.870554       -23.6890 
  24   2.0000      -0.867636       -23.6096 
  25   2.0000      -0.863893       -23.5077 
  26   2.0000      -0.846915       -23.0457 
  27   2.0000      -0.830564       -22.6008 
  28   2.0000      -0.763404       -20.7733 
  29   2.0000      -0.739141       -20.1131 
  30   2.0000      -0.731737       -19.9116 
  31   2.0000      -0.715365       -19.4661 
  32   2.0000      -0.661146       -17.9907 
  33   2.0000      -0.634246       -17.2587 
  34   2.0000      -0.619249       -16.8506 
  35   2.0000      -0.611364       -16.6361 
  36   2.0000      -0.595896       -16.2151 
  37   2.0000      -0.595579       -16.2065 
  38   2.0000      -0.581967       -15.8361 
  39   2.0000      -0.570462       -15.5231 
  40   2.0000      -0.540964       -14.7204 
  41   2.0000      -0.537030       -14.6133 
  42   2.0000      -0.506968       -13.7953 
  43   2.0000      -0.500837       -13.6285 
  44   2.0000      -0.489597       -13.3226 
  45   2.0000      -0.476088       -12.9550 
  46   2.0000      -0.453268       -12.3341 
  47   2.0000      -0.450183       -12.2501 
  48   2.0000      -0.447429       -12.1752 
  49   2.0000      -0.446646       -12.1539 
  50   2.0000      -0.438727       -11.9384 
  51   2.0000      -0.437066       -11.8932 
  52   2.0000      -0.430432       -11.7126 
  53   2.0000      -0.424876       -11.5615 
  54   2.0000      -0.382910       -10.4195 
  55   2.0000      -0.381529       -10.3819 
  56   2.0000      -0.370813       -10.0903 
  57   2.0000      -0.365683        -9.9507 
  58   2.0000      -0.363908        -9.9024 
  59   2.0000      -0.362060        -9.8521 
  60   2.0000      -0.353289        -9.6135 
  61   2.0000      -0.342329        -9.3153 
  62   2.0000      -0.321184        -8.7399 
  63   2.0000      -0.313033        -8.5181 
  64   2.0000      -0.311833        -8.4854 
  65   2.0000      -0.302728        -8.2377 
  66   2.0000      -0.279975        -7.6185 
  67   2.0000      -0.277492        -7.5509 
  68   2.0000      -0.256314        -6.9747 
  69   2.0000      -0.232570        -6.3285 
  70   2.0000      -0.228683        -6.2228 
  71   2.0000      -0.209243        -5.6938 
  72   0.0000      -0.045290        -1.2324 
  73   0.0000      -0.021406        -0.5825 
  74   0.0000       0.008525         0.2320 
  75   0.0000       0.017802         0.4844 
  76   0.0000       0.042707         1.1621 
  77   0.0000       0.062747         1.7074 
  78   0.0000       0.072312         1.9677 
  79   0.0000       0.072985         1.9860 
  80   0.0000       0.079234         2.1561 
  81   0.0000       0.082179         2.2362 
  82   0.0000       0.096032         2.6132 
*Only the first 10 virtual orbitals were printed.

                    ********************************
                    * MULLIKEN POPULATION ANALYSIS *
                    ********************************

-----------------------
MULLIKEN ATOMIC CHARGES
-----------------------
   0 C :   -0.003321
   1 C :   -0.006843
   2 C :   -0.092600
   3 C :    0.106430
   4 N :   -0.035572
   5 C :    0.029534
   6 C :    0.092411
   7 C :   -0.039679
   8 C :   -0.079118
   9 C :    0.112262
  10 N :   -0.043812
  11 C :    0.063836
  12 C :   -0.067504
  13 C :   -0.031609
  14 C :   -0.032017
  15 N :   -0.166923
  16 C :    0.059806
  17 C :   -0.151422
  18 N :   -0.161625
  19 C :    0.058820
  20 C :   -0.099085
  21 H :   -0.001276
  22 H :    0.001782
  23 H :   -0.010047
  24 H :    0.164872
  25 H :   -0.014657
  26 H :   -0.006331
  27 H :    0.167454
  28 H :    0.019137
  29 H :    0.052902
  30 H :    0.051072
  31 H :    0.050979
  32 H :    0.053302
  33 H :   -0.020818
  34 H :   -0.020342
Sum of atomic charges:   -0.0000000

--------------------------------
MULLIKEN REDUCED ORBITAL CHARGES
--------------------------------
  0 C s       :     3.168656  s :     3.168656
      pz      :     0.959746  p :     2.800227
      px      :     0.858489
      py      :     0.981992
      dz2     :     0.007216  d :     0.034438
      dxz     :     0.008284
      dyz     :     0.005058
      dx2y2   :     0.007474
      dxy     :     0.006406

  1 C s       :     3.167588  s :     3.167588
      pz      :     0.953194  p :     2.804645
      px      :     0.880510
      py      :     0.970940
      dz2     :     0.006765  d :     0.034610
      dxz     :     0.008971
      dyz     :     0.004662
      dx2y2   :     0.006880
      dxy     :     0.007332

  2 C s       :     3.332111  s :     3.332111
      pz      :     0.865781  p :     2.726244
      px      :     0.935782
      py      :     0.924682
      dz2     :     0.005026  d :     0.034245
      dxz     :     0.009375
      dyz     :     0.004244
      dx2y2   :     0.007046
      dxy     :     0.008554

  3 C s       :     3.029384  s :     3.029384
      pz      :     1.008293  p :     2.806155
      px      :     0.785998
      py      :     1.011865
      dz2     :     0.010290  d :     0.058031
      dxz     :     0.013465
      dyz     :     0.005917
      dx2y2   :     0.015140
      dxy     :     0.013220

  4 N s       :     3.332270  s :     3.332270
      pz      :     1.248333  p :     3.680236
      px      :     1.084248
      py      :     1.347656
      dz2     :     0.003435  d :     0.023065
      dxz     :     0.006317
      dyz     :     0.003354
      dx2y2   :     0.004357
      dxy     :     0.005601

  5 C s       :     3.085948  s :     3.085948
      pz      :     0.945940  p :     2.804644
      px      :     0.910285
      py      :     0.948419
      dz2     :     0.017991  d :     0.079874
      dxz     :     0.017856
      dyz     :     0.011536
      dx2y2   :     0.016998
      dxy     :     0.015493

  6 C s       :     3.076751  s :     3.076751
      pz      :     0.894994  p :     2.790448
      px      :     0.919304
      py      :     0.976151
      dz2     :     0.009541  d :     0.040389
      dxz     :     0.009167
      dyz     :     0.005875
      dx2y2   :     0.008858
      dxy     :     0.006949

  7 C s       :     3.261207  s :     3.261207
      pz      :     0.927158  p :     2.744412
      px      :     0.852833
      py      :     0.964421
      dz2     :     0.005902  d :     0.034060
      dxz     :     0.010090
      dyz     :     0.004092
      dx2y2   :     0.006404
      dxy     :     0.007572

  8 C s       :     3.338609  s :     3.338609
      pz      :     0.874855  p :     2.705965
      px      :     0.880666
      py      :     0.950444
      dz2     :     0.005623  d :     0.034544
      dxz     :     0.010644
      dyz     :     0.004156
      dx2y2   :     0.005914
      dxy     :     0.008208

  9 C s       :     3.026081  s :     3.026081
      pz      :     0.956981  p :     2.803266
      px      :     0.850742
      py      :     0.995543
      dz2     :     0.011195  d :     0.058392
      dxz     :     0.014145
      dyz     :     0.006327
      dx2y2   :     0.013544
      dxy     :     0.013181

 10 N s       :     3.339174  s :     3.339174
      pz      :     1.210129  p :     3.681678
      px      :     1.068471
      py      :     1.403078
      dz2     :     0.004688  d :     0.022961
      dxz     :     0.005785
      dyz     :     0.003362
      dx2y2   :     0.004469
      dxy     :     0.004657

 11 C s       :     3.055022  s :     3.055022
      pz      :     0.924949  p :     2.800433
      px      :     0.938050
      py      :     0.937434
      dz2     :     0.019177  d :     0.080709
      dxz     :     0.017948
      dyz     :     0.012265
      dx2y2   :     0.016515
      dxy     :     0.014803

 12 C s       :     3.176499  s :     3.176499
      pz      :     0.966751  p :     2.848697
      px      :     0.855391
      py      :     1.026555
      dz2     :     0.006759  d :     0.042308
      dxz     :     0.010007
      dyz     :     0.006131
      dx2y2   :     0.009756
      dxy     :     0.009656

 13 C s       :     3.077939  s :     3.077939
      pz      :     1.013263  p :     2.917250
      px      :     0.995086
      py      :     0.908900
      dz2     :     0.005118  d :     0.036419
      dxz     :     0.006085
      dyz     :     0.008683
      dx2y2   :     0.008010
      dxy     :     0.008524

 14 C s       :     3.079284  s :     3.079284
      pz      :     0.937571  p :     2.916347
      px      :     0.988033
      py      :     0.990743
      dz2     :     0.008115  d :     0.036386
      dxz     :     0.007111
      dyz     :     0.007136
      dx2y2   :     0.006521
      dxy     :     0.007502

 15 N s       :     3.465516  s :     3.465516
      pz      :     1.398794  p :     3.672852
      px      :     0.959046
      py      :     1.315012
      dz2     :     0.004607  d :     0.028555
      dxz     :     0.009622
      dyz     :     0.004314
      dx2y2   :     0.003255
      dxy     :     0.006756

 16 C s       :     3.045605  s :     3.045605
      pz      :     0.993064  p :     2.834866
      px      :     0.829242
      py      :     1.012560
      dz2     :     0.011838  d :     0.059722
      dxz     :     0.015497
      dyz     :     0.007030
      dx2y2   :     0.012893
      dxy     :     0.012463

 17 C s       :     3.414188  s :     3.414188
      pz      :     0.816319  p :     2.703755
      px      :     0.962922
      py      :     0.924515
      dz2     :     0.006151  d :     0.033479
      dxz     :     0.008814
      dyz     :     0.004311
      dx2y2   :     0.006768
      dxy     :     0.007434

 18 N s       :     3.462691  s :     3.462691
      pz      :     1.354836  p :     3.670560
      px      :     0.991646
      py      :     1.324079
      dz2     :     0.005168  d :     0.028373
      dxz     :     0.007966
      dyz     :     0.004595
      dx2y2   :     0.003850
      dxy     :     0.006795

 19 C s       :     3.048068  s :     3.048068
      pz      :     0.993881  p :     2.833343
      px      :     0.830651
      py      :     1.008810
      dz2     :     0.010389  d :     0.059769
      dxz     :     0.014451
      dyz     :     0.006380
      dx2y2   :     0.015116
      dxy     :     0.013433

 20 C s       :     3.341934  s :     3.341934
      pz      :     0.856622  p :     2.723226
      px      :     0.959424
      py      :     0.907180
      dz2     :     0.005152  d :     0.033925
      dxz     :     0.008796
      dyz     :     0.004425
      dx2y2   :     0.007566
      dxy     :     0.007986

 21 H s       :     0.978369  s :     0.978369
      pz      :     0.005113  p :     0.022907
      px      :     0.013039
      py      :     0.004755

 22 H s       :     0.975270  s :     0.975270
      pz      :     0.005884  p :     0.022949
      px      :     0.011325
      py      :     0.005740

 23 H s       :     0.987019  s :     0.987019
      pz      :     0.011043  p :     0.023028
      px      :     0.003164
      py      :     0.008821

 24 H s       :     0.791281  s :     0.791281
      pz      :     0.018404  p :     0.043847
      px      :     0.009796
      py      :     0.015647

 25 H s       :     0.991323  s :     0.991323
      pz      :     0.008742  p :     0.023333
      px      :     0.008429
      py      :     0.006162

 26 H s       :     0.983263  s :     0.983263
      pz      :     0.010649  p :     0.023068
      px      :     0.004856
      py      :     0.007563

 27 H s       :     0.788961  s :     0.788961
      pz      :     0.014875  p :     0.043585
      px      :     0.015752
      py      :     0.012958

 28 H s       :     0.958190  s :     0.958190
      pz      :     0.012110  p :     0.022674
      px      :     0.002843
      py      :     0.007721

 29 H s       :     0.923922  s :     0.923922
      pz      :     0.010901  p :     0.023176
      px      :     0.008594
      py      :     0.003681

 30 H s       :     0.925861  s :     0.925861
      pz      :     0.006668  p :     0.023067
      px      :     0.004580
      py      :     0.011819

 31 H s       :     0.925971  s :     0.925971
      pz      :     0.014407  p :     0.023049
      px      :     0.004438
      py      :     0.004205

 32 H s       :     0.923530  s :     0.923530
      pz      :     0.004432  p :     0.023169
      px      :     0.008865
      py      :     0.009872

 33 H s       :     0.997570  s :     0.997570
      pz      :     0.010930  p :     0.023248
      px      :     0.004779
      py      :     0.007539

 34 H s       :     0.997487  s :     0.997487
      pz      :     0.010900  p :     0.022854
      px      :     0.003277
      py      :     0.008677



                     *******************************
                     * LOEWDIN POPULATION ANALYSIS *
                     *******************************

----------------------
LOEWDIN ATOMIC CHARGES
----------------------
   0 C :   -0.050800
   1 C :   -0.042680
   2 C :   -0.053946
   3 C :   -0.001733
   4 N :    0.073346
   5 C :    0.042054
   6 C :   -0.065091
   7 C :   -0.019690
   8 C :   -0.045379
   9 C :    0.004437
  10 N :    0.072055
  11 C :    0.052312
  12 C :   -0.046894
  13 C :   -0.025114
  14 C :   -0.024693
  15 N :   -0.189087
  16 C :   -0.033636
  17 C :   -0.030797
  18 N :   -0.181466
  19 C :   -0.037271
  20 C :   -0.044911
  21 H :    0.031748
  22 H :    0.032786
  23 H :    0.037728
  24 H :    0.111844
  25 H :    0.028894
  26 H :    0.041174
  27 H :    0.114892
  28 H :    0.042566
  29 H :    0.037241
  30 H :    0.032159
  31 H :    0.032093
  32 H :    0.037181
  33 H :    0.035702
  34 H :    0.032975

-------------------------------
LOEWDIN REDUCED ORBITAL CHARGES
-------------------------------
  0 C s       :     2.863921  s :     2.863921
      pz      :     1.032941  p :     3.097758
      px      :     1.042907
      py      :     1.021910
      dz2     :     0.017540  d :     0.089121
      dxz     :     0.021990
      dyz     :     0.013981
      dx2y2   :     0.019332
      dxy     :     0.016278

  1 C s       :     2.864388  s :     2.864388
      pz      :     1.029300  p :     3.089083
      px      :     1.044030
      py      :     1.015753
      dz2     :     0.016407  d :     0.089210
      dxz     :     0.023736
      dyz     :     0.012577
      dx2y2   :     0.018163
      dxy     :     0.018327

  2 C s       :     2.862114  s :     2.862114
      pz      :     1.028216  p :     3.101950
      px      :     1.051470
      py      :     1.022264
      dz2     :     0.012273  d :     0.089882
      dxz     :     0.025313
      dyz     :     0.010481
      dx2y2   :     0.019987
      dxy     :     0.021827

  3 C s       :     2.834475  s :     2.834475
      pz      :     1.041848  p :     3.024842
      px      :     0.948893
      py      :     1.034102
      dz2     :     0.025500  d :     0.142415
      dxz     :     0.031784
      dyz     :     0.016112
      dx2y2   :     0.039180
      dxy     :     0.029839

  4 N s       :     3.035439  s :     3.035439
      pz      :     1.300693  p :     3.832412
      px      :     1.166016
      py      :     1.365703
      dz2     :     0.008240  d :     0.058803
      dxz     :     0.016594
      dyz     :     0.008349
      dx2y2   :     0.011844
      dxy     :     0.013777

  5 C s       :     2.837282  s :     2.837282
      pz      :     0.954492  p :     2.938066
      px      :     1.026302
      py      :     0.957272
      dz2     :     0.038941  d :     0.182598
      dxz     :     0.043275
      dyz     :     0.027798
      dx2y2   :     0.037691
      dxy     :     0.034892

  6 C s       :     2.847979  s :     2.847979
      pz      :     1.055017  p :     3.110170
      px      :     1.019997
      py      :     1.035156
      dz2     :     0.023983  d :     0.106942
      dxz     :     0.026165
      dyz     :     0.015651
      dx2y2   :     0.023507
      dxy     :     0.017637

  7 C s       :     2.860878  s :     2.860878
      pz      :     1.022968  p :     3.070532
      px      :     1.048778
      py      :     0.998787
      dz2     :     0.014937  d :     0.088280
      dxz     :     0.027159
      dyz     :     0.010231
      dx2y2   :     0.017385
      dxy     :     0.018569

  8 C s       :     2.859859  s :     2.859859
      pz      :     1.025237  p :     3.094853
      px      :     1.055667
      py      :     1.013949
      dz2     :     0.014551  d :     0.090667
      dxz     :     0.028429
      dyz     :     0.010470
      dx2y2   :     0.017185
      dxy     :     0.020033

  9 C s       :     2.833842  s :     2.833842
      pz      :     1.057742  p :     3.018937
      px      :     0.933169
      py      :     1.028025
      dz2     :     0.027301  d :     0.142784
      dxz     :     0.035455
      dyz     :     0.016179
      dx2y2   :     0.033973
      dxy     :     0.029875

 10 N s       :     3.036589  s :     3.036589
      pz      :     1.269933  p :     3.832824
      px      :     1.162610
      py      :     1.400281
      dz2     :     0.012016  d :     0.058531
      dxz     :     0.015303
      dyz     :     0.008483
      dx2y2   :     0.011916
      dxy     :     0.010813

 11 C s       :     2.841846  s :     2.841846
      pz      :     0.941089  p :     2.921320
      px      :     1.042786
      py      :     0.937445
      dz2     :     0.043971  d :     0.184522
      dxz     :     0.041995
      dyz     :     0.029411
      dx2y2   :     0.037893
      dxy     :     0.031252

 12 C s       :     2.823817  s :     2.823817
      pz      :     1.062651  p :     3.117407
      px      :     0.963787
      py      :     1.090969
      dz2     :     0.016770  d :     0.105670
      dxz     :     0.025576
      dyz     :     0.015342
      dx2y2   :     0.024468
      dxy     :     0.023513

 13 C s       :     2.830575  s :     2.830575
      pz      :     1.072322  p :     3.104981
      px      :     1.044620
      py      :     0.988039
      dz2     :     0.011541  d :     0.089558
      dxz     :     0.015550
      dyz     :     0.022062
      dx2y2   :     0.020561
      dxy     :     0.019845

 14 C s       :     2.830962  s :     2.830962
      pz      :     1.016734  p :     3.104265
      px      :     1.038882
      py      :     1.048649
      dz2     :     0.022338  d :     0.089467
      dxz     :     0.016849
      dyz     :     0.017079
      dx2y2   :     0.014672
      dxy     :     0.018529

 15 N s       :     3.241110  s :     3.241110
      pz      :     1.442956  p :     3.889016
      px      :     1.111491
      py      :     1.334569
      dz2     :     0.006866  d :     0.058961
      dxz     :     0.022407
      dyz     :     0.006041
      dx2y2   :     0.008411
      dxy     :     0.015236

 16 C s       :     2.840966  s :     2.840966
      pz      :     1.007064  p :     3.047326
      px      :     1.030644
      py      :     1.009618
      dz2     :     0.028040  d :     0.145344
      dxz     :     0.040215
      dyz     :     0.017759
      dx2y2   :     0.030883
      dxy     :     0.028447

 17 C s       :     2.862754  s :     2.862754
      pz      :     1.025009  p :     3.080004
      px      :     1.048531
      py      :     1.006465
      dz2     :     0.015481  d :     0.088039
      dxz     :     0.024951
      dyz     :     0.010575
      dx2y2   :     0.018536
      dxy     :     0.018496

 18 N s       :     3.237528  s :     3.237528
      pz      :     1.402380  p :     3.885158
      px      :     1.129835
      py      :     1.352942
      dz2     :     0.007897  d :     0.058781
      dxz     :     0.018850
      dyz     :     0.007363
      dx2y2   :     0.009069
      dxy     :     0.015601

 19 C s       :     2.842564  s :     2.842564
      pz      :     1.023096  p :     3.049257
      px      :     1.009416
      py      :     1.016746
      dz2     :     0.025280  d :     0.145450
      dxz     :     0.034667
      dyz     :     0.017575
      dx2y2   :     0.037504
      dxy     :     0.030423

 20 C s       :     2.867300  s :     2.867300
      pz      :     1.021142  p :     3.088818
      px      :     1.056210
      py      :     1.011466
      dz2     :     0.012525  d :     0.088792
      dxz     :     0.023942
      dyz     :     0.010825
      dx2y2   :     0.020936
      dxy     :     0.020564

 21 H s       :     0.900770  s :     0.900770
      pz      :     0.015823  p :     0.067482
      px      :     0.036756
      py      :     0.014902

 22 H s       :     0.899704  s :     0.899704
      pz      :     0.017917  p :     0.067510
      px      :     0.032028
      py      :     0.017566

 23 H s       :     0.893383  s :     0.893383
      pz      :     0.032024  p :     0.068889
      px      :     0.010861
      py      :     0.026003

 24 H s       :     0.764288  s :     0.764288
      pz      :     0.051443  p :     0.123868
      px      :     0.026899
      py      :     0.045526

 25 H s       :     0.900397  s :     0.900397
      pz      :     0.026266  p :     0.070709
      px      :     0.025408
      py      :     0.019036

 26 H s       :     0.889994  s :     0.889994
      pz      :     0.031111  p :     0.068832
      px      :     0.015119
      py      :     0.022602

 27 H s       :     0.761507  s :     0.761507
      pz      :     0.042270  p :     0.123601
      px      :     0.042297
      py      :     0.039034

 28 H s       :     0.887794  s :     0.887794
      pz      :     0.035629  p :     0.069640
      px      :     0.009834
      py      :     0.024177

 29 H s       :     0.894175  s :     0.894175
      pz      :     0.031994  p :     0.068584
      px      :     0.025934
      py      :     0.010656

 30 H s       :     0.898889  s :     0.898889
      pz      :     0.020003  p :     0.068952
      px      :     0.014773
      py      :     0.034176

 31 H s       :     0.898974  s :     0.898974
      pz      :     0.041624  p :     0.068933
      px      :     0.014312
      py      :     0.012998

 32 H s       :     0.894223  s :     0.894223
      pz      :     0.012914  p :     0.068595
      px      :     0.026657
      py      :     0.029024

 33 H s       :     0.894326  s :     0.894326
      pz      :     0.031923  p :     0.069972
      px      :     0.015363
      py      :     0.022686

 34 H s       :     0.898603  s :     0.898603
      pz      :     0.031767  p :     0.068423
      px      :     0.010979
      py      :     0.025677



                      *****************************
                      * MAYER POPULATION ANALYSIS *
                      *****************************

  NA   - Mulliken gross atomic population
  ZA   - Total nuclear charge
  QA   - Mulliken gross atomic charge
  VA   - Mayer's total valence
  BVA  - Mayer's bonded valence
  FA   - Mayer's free valence

  ATOM       NA         ZA         QA         VA         BVA        FA
  0 C      6.0033     6.0000    -0.0033     3.7762     3.7762     0.0000
  1 C      6.0068     6.0000    -0.0068     3.7914     3.7914     0.0000
  2 C      6.0926     6.0000    -0.0926     3.7721     3.7721    -0.0000
  3 C      5.8936     6.0000     0.1064     3.8624     3.8624     0.0000
  4 N      7.0356     7.0000    -0.0356     3.3794     3.3794    -0.0000
  5 C      5.9705     6.0000     0.0295     4.1029     4.1029    -0.0000
  6 C      5.9076     6.0000     0.0924     3.6027     3.6027    -0.0000
  7 C      6.0397     6.0000    -0.0397     3.7974     3.7974    -0.0000
  8 C      6.0791     6.0000    -0.0791     3.7409     3.7409    -0.0000
  9 C      5.8877     6.0000     0.1123     3.8554     3.8554    -0.0000
 10 N      7.0438     7.0000    -0.0438     3.3773     3.3773     0.0000
 11 C      5.9362     6.0000     0.0638     4.1944     4.1944    -0.0000
 12 C      6.0675     6.0000    -0.0675     3.9251     3.9251    -0.0000
 13 C      6.0316     6.0000    -0.0316     3.9361     3.9361    -0.0000
 14 C      6.0320     6.0000    -0.0320     3.9368     3.9368    -0.0000
 15 N      7.1669     7.0000    -0.1669     3.0444     3.0444    -0.0000
 16 C      5.9402     6.0000     0.0598     4.0210     4.0210     0.0000
 17 C      6.1514     6.0000    -0.1514     3.7511     3.7511    -0.0000
 18 N      7.1616     7.0000    -0.1616     3.0893     3.0893    -0.0000
 19 C      5.9412     6.0000     0.0588     3.9652     3.9652     0.0000
 20 C      6.0991     6.0000    -0.0991     3.7962     3.7962     0.0000
 21 H      1.0013     1.0000    -0.0013     0.9791     0.9791    -0.0000
 22 H      0.9982     1.0000     0.0018     0.9796     0.9796     0.0000
 23 H      1.0100     1.0000    -0.0100     0.9875     0.9875     0.0000
 24 H      0.8351     1.0000     0.1649     0.9818     0.9818    -0.0000
 25 H      1.0147     1.0000    -0.0147     1.0200     1.0200    -0.0000
 26 H      1.0063     1.0000    -0.0063     0.9881     0.9881    -0.0000
 27 H      0.8325     1.0000     0.1675     0.9841     0.9841     0.0000
 28 H      0.9809     1.0000     0.0191     1.0044     1.0044    -0.0000
 29 H      0.9471     1.0000     0.0529     0.9809     0.9809    -0.0000
 30 H      0.9489     1.0000     0.0511     0.9873     0.9873    -0.0000
 31 H      0.9490     1.0000     0.0510     0.9874     0.9874     0.0000
 32 H      0.9467     1.0000     0.0533     0.9807     0.9807    -0.0000
 33 H      1.0208     1.0000    -0.0208     0.9993     0.9993    -0.0000
 34 H      1.0203     1.0000    -0.0203     0.9916     0.9916     0.0000

  Mayer bond orders larger than 0.100000
B(  0-C ,  1-C ) :   1.3246 B(  0-C , 20-C ) :   1.3892 B(  0-C , 21-H ) :   0.9872 
B(  1-C ,  2-C ) :   1.3794 B(  1-C , 22-H ) :   0.9845 B(  2-C ,  3-C ) :   1.2912 
B(  2-C , 20-C ) :   0.1101 B(  2-C , 23-H ) :   1.0168 B(  3-C ,  4-N ) :   1.1635 
B(  3-C , 19-C ) :   1.2535 B(  4-N ,  5-C ) :   1.2396 B(  4-N , 24-H ) :   0.9003 
B(  5-C ,  6-C ) :   0.9970 B(  5-C , 18-N ) :   1.6489 B(  6-C ,  7-C ) :   1.3091 
B(  6-C , 17-C ) :   1.2922 B(  7-C ,  8-C ) :   1.3708 B(  7-C , 25-H ) :   0.9850 
B(  8-C ,  9-C ) :   1.2705 B(  8-C , 17-C ) :   0.1016 B(  8-C , 26-H ) :   1.0205 
B(  9-C , 10-N ) :   1.1729 B(  9-C , 16-C ) :   1.2570 B( 10-N , 11-C ) :   1.2202 
B( 10-N , 27-H ) :   0.9015 B( 11-C , 12-C ) :   1.0822 B( 11-C , 15-N ) :   1.6423 
B( 12-C , 13-C ) :   0.9461 B( 12-C , 14-C ) :   0.9455 B( 12-C , 28-H ) :   0.9262 
B( 13-C , 14-C ) :   1.0389 B( 13-C , 29-H ) :   0.9492 B( 13-C , 30-H ) :   0.9559 
B( 14-C , 31-H ) :   0.9562 B( 14-C , 32-H ) :   0.9499 B( 15-N , 16-C ) :   1.3064 
B( 16-C , 17-C ) :   1.3021 B( 17-C , 33-H ) :   1.0111 B( 18-N , 19-C ) :   1.3140 
B( 19-C , 20-C ) :   1.2817 B( 20-C , 34-H ) :   1.0143 

-------
TIMINGS
-------

Total SCF time: 0 days 0 hours 1 min 38 sec 

Total time                  ....      98.856 sec
Sum of individual times     ....      90.988 sec  ( 92.0%)

SCF preparation             ....       0.628 sec  (  0.6%)
Fock matrix formation       ....      89.858 sec  ( 90.9%)
  Startup                   ....       0.007 sec  (  0.0% of F)
  Split-RI-J                ....       5.743 sec  (  6.4% of F)
  Chain of spheres X        ....      75.894 sec  ( 84.5% of F)
  XC integration            ....       8.049 sec  (  9.0% of F)
    Basis function eval.    ....       2.747 sec  ( 34.1% of XC)
    Density eval.           ....       1.834 sec  ( 22.8% of XC)
    XC-Functional eval.     ....       0.274 sec  (  3.4% of XC)
    XC-Potential eval.      ....       2.897 sec  ( 36.0% of XC)
  CPCM terms                ....       7.752 sec  (  8.6% of F)
Diagonalization             ....       0.000 sec  (  0.0%)
Density matrix formation    ....       0.060 sec  (  0.1%)
Total Energy calculation    ....       0.055 sec  (  0.1%)
Population analysis         ....       0.101 sec  (  0.1%)
Orbital Transformation      ....       0.035 sec  (  0.0%)
Orbital Orthonormalization  ....       0.000 sec  (  0.0%)
DIIS solution               ....       0.057 sec  (  0.1%)
SOSCF solution              ....       0.194 sec  (  0.2%)
Finished LeanSCF after  99.1 sec

Maximum memory used throughout the entire LEANSCF-calculation: 98.7 MB

------------------------------------------------------------------------------
                         ORCA PROPERTY INTEGRAL CALCULATIONS
------------------------------------------------------------------------------

GBWName                                   ... C:\Users\jabreumiranda\Radioprotection_Pipeline_Project\06_Quantum_DFT_ORCA\CHEMBL4952776_neutral_opt.gbw
Number of atoms                           ...     35
Number of basis functions                 ...    364
Max core memory                           ...   2000 MB

Dipole integrals                          ... YES
Quadrupole integrals                      ...  NO
Linear momentum integrals                 ...  NO
Angular momentum integrals                ...  NO
Higher moments length integrals           ...  NO
Higher moments velocity integrals         ...  NO
Kinetic energy integrals                  ...  NO
GIAO right hand sides                     ...  NO
GIAO dipole derivative integrals          ...  NO
SOC integrals                             ...  NO
EPR diamagnetic integrals (GIAO)          ...  NO
EPR gauge integrals                       ...  NO
Field gradient integrals                  ...  NO (   0 nuclei)
Spin-dipole/Fermi contact integrals       ...  NO (   0 nuclei)
Contact density integrals                 ...  NO (   0 nuclei)
Nucleus-orbit integrals                   ...  NO (   0 nuclei)
Geometric perturbations                   ... YES (  35 nuclei)

Choice of electric origin   ... Center of mass
Position of electric origin ... ( -0.5951, -0.0351, -0.0662) 
Choice of magnetic origin   ... GIAO
Position of magnetic origin ... (  0.0000,  0.0000,  0.0000) 

Calculating integrals                     ... Electric Dipole (Length)     done (  0.0 sec)
Calculating integrals                     ... Geometrical perturbation right hand sides

-----------------------
GEOMETRIC PERTURBATIONS (35 nuclei)
-----------------------

MaxCore                            ...   2000 MB
Number of batches                  ...      1

BATCH   0: Atoms    0 -   34 (105 perturbations)
   => H(core) and overlap derivative integrals     ... done (     1.0 sec)
   => Making and storing internal U-coefficients   ... done (     2.2 sec)
   => RI-J derivative integrals                    ... done (    25.0 sec)
   => RI-J response operators                      ... done (     8.9 sec)
   => Chain of spheres derivative integrals        ... done (    92.6 sec)
   => Chain of spheres response operator           ... done (   128.1 sec)
   => XC derivative integrals                      ... done (   184.9 sec)
   => XC response operators                        ... done (    94.8 sec)
   => CPCM derivative integrals                    ... done (    65.0 sec)
   => CPCM response operators                      ... done (   104.7 sec)
   => Completing and storing right hand sides      ... done (     0.2 sec)
   => Total time for right hand sides = 646.0 sec

  geometrical perturbations done (646.0 sec)

Property integrals calculated in 646.0 sec

Maximum memory used throughout the entire PROPINT-calculation: 720.7 MB


-------------------------------------------------------------------------------
                          DFT DISPERSION CORRECTION                            
                                                                               
                              DFTD3 V3.1  Rev 1                                
                          USING Becke-Johnson damping                          
-------------------------------------------------------------------------------
The B3LYP functional is recognized
Active option DFTDOPT                   ...         4   

molecular C6(AA) [au] = 15031.001180 


            DFT-D V3
 parameters
 s6 scaling factor         :     1.0000 
 a1 scaling factor         :     0.3981 
 s8 scaling factor         :     1.9889 
 a2 scaling factor         :     4.4211 
 ad hoc parameters k1-k3   :    16.0000     1.3333    -4.0000 

 Edisp/kcal,au: -46.788809667477  -0.074562706398 
 E6   /kcal   : -21.783971332 
 E8   /kcal   : -25.004838336 
 % E8         :  53.441920223 

-------------------------   ----------------
Dispersion correction           -0.074562706
-------------------------   ----------------


-------------------------   --------------------
FINAL SINGLE POINT ENERGY      -874.204540734981
-------------------------   --------------------

                                *** OPTIMIZATION RUN DONE ***

------------------------------------------------------------------------------
                            ORCA SCF RESPONSE CALCULATION
------------------------------------------------------------------------------

GBWName                                 ... C:\Users\jabreumiranda\Radioprotection_Pipeline_Project\06_Quantum_DFT_ORCA\CHEMBL4952776_neutral_opt.gbw
Number of atoms                         ...     35
Number of basis functions               ...    364
Max core memory                         ...   2000 MB

Electric field perturbation             ...  NO
Quadrupolar field perturbation          ...  NO
Magnetic field perturbation (no GIAO)   ...  NO
Magnetic field perturbation (with GIAO) ...  NO
Linear momentum (velocity) perturbation ...  NO
Spin-orbit coupling perturbation        ...  NO
Choice of electric origin               ... Center of mass
Position of electric origin             ...    -0.595080    -0.035080    -0.066237
Choice of magnetic origin               ... GIAO
Position of magnetic origin             ...     0.000000     0.000000     0.000000
Nuclear geometric perturbations         ... YES ( 105 perturbations)
Nucleus-orbit perturbations             ...  NO (   0 perturbations)
Spin-dipole/Fermi contact perturbations ...  NO (   0 perturbations)

Total number of real perturbations      ...    105
Total number of imaginary perturbations ...      0
Total number of triplet perturbations   ...      0
Total number of SOC perturbations       ...      0


                                **********************
                                * REAL PERTURBATIONS *
                                **********************



-------------------
SHARK CP-SCF DRIVER
-------------------

Dimension of the orbital basis          ...    364
Dimension of the CPSCF-problem          ...  21024
Number of operators                     ...      1
Max. number of iterations               ...    128
Convergence Tolerance                   ... 1.0e-04
Number of perturbations                 ...    105
Perturbation type                       ... REAL

----------------------------
POPLE LINEAR EQUATION SOLVER
----------------------------

  ITERATION   0:   ||err||_max =   4.5626e-01 ( 118.7 sec   0/105 done)
  ITERATION   1:   ||err||_max =   5.6189e-02 ( 120.4 sec   0/105 done)
  ITERATION   2:   ||err||_max =   2.6816e-02 ( 121.2 sec   0/105 done)
  ITERATION   3:   ||err||_max =   9.2380e-03 ( 120.8 sec   0/105 done)
  ITERATION   4:   ||err||_max =   3.3152e-03 ( 121.1 sec   1/105 done)
  ITERATION   5:   ||err||_max =   6.9500e-04 ( 123.9 sec  17/105 done)
  ITERATION   6:   ||err||_max =   2.5462e-04 ( 106.5 sec  52/105 done)
  ITERATION   7:   ||err||_max =   7.6727e-05 (  70.9 sec 105/105 done)

CP-SCF equations solved in 921.7 sec
Response densities calculated in   0.0 sec

Maximum memory used throughout the entire SCFRESP-calculation: 775.5 MB

------------------------------------------------------------------------------
                              ORCA PROPERTY CALCULATIONS
------------------------------------------------------------------------------

GBWName                                 ... C:\Users\jabreumiranda\Radioprotection_Pipeline_Project\06_Quantum_DFT_ORCA\CHEMBL4952776_neutral_opt.gbw
Number of atoms                         ...     35
Number of basis functions               ...    364
Max core memory                         ...   2000 MB

Electric properties:
Dipole moment                           ... YES
Quadrupole moment                       ...  NO
Static polarizability (Dipole/Dipole)   ...  NO
Static polarizability (Dipole/Quad.)    ...  NO
Static polarizability (Quad./Quad.)     ...  NO
Static polarizability (Velocity)        ...  NO
Static hyperpolarizability              ...  NO

Atomic electric properties:
Dipole moment                           ...  NO
Quadrupole moment                       ...  NO
Static polarizability                   ...  NO

Choice of electric origin               ... Center of mass
Position of electric origin             ...    -0.595080    -0.035080    -0.066237

General magnetic properties:
Magnetizability                         ...  NO

EPR properties:
g-Tensor (aka g-matrix)                 ...  NO
Zero-Field splitting spin-orbit         ...  NO
Zero-field splitting spin-spin          ...  NO
Hyperfine couplings                     ...  NO (   0 nuclei)
Quadrupole couplings                    ...  NO (   0 nuclei)
Contact density                         ...  NO (   0 nuclei)

NMR properties:
Chemical shifts                         ...  NO (   0 nuclei)
Spin-rotation constants                 ...  NO (   0 nuclei)
Spin-spin couplings                     ...  NO (   0 nuclei,    0 pairs)

Choice of magnetic origin               ... GIAO
Position of magnetic origin             ...     0.000000     0.000000     0.000000

Properties with geometric perturbations:
SCF Hessian                             ... YES
IR spectrum                             ... YES
VCD spectrum                            ...  NO
X-ray spectroscopy properties:
SCF XES/XAS/RIXS spectra                ...  NO

SCF SOC stabilization energy            ...  NO
Diagonal Born-Oppenheimer correction    ...  NO

-------------
DIPOLE MOMENT
-------------

Method             : SCF
Type of density    : Electron Density
Multiplicity       :   1
Irrep              :   0
Energy             :  -874.1299780285833094 Eh
Basis              : AO
                                X                 Y                 Z
Electronic contribution:     -8.754758218      -0.421217601      -1.058435394
Nuclear contribution   :     11.582821901       0.686553652       1.314862490
                        -----------------------------------------
Total Dipole Moment    :      2.828063683       0.265336051       0.256427096
                        -----------------------------------------
Magnitude (a.u.)       :      2.852034760
Magnitude (Debye)      :      7.249296249



--------------------
Rotational spectrum 
--------------------
 
Rotational constants in cm-1:             0.049302             0.003669             0.003443 
Rotational constants in MHz :          1478.031506           109.987999           103.228072 

Dipole components along the rotational axes: 
x,y,z [a.u.] :     2.838328     0.221171    -0.170534 
x,y,z [Debye]:     7.214456     0.562171    -0.433462 

 

Dipole moment calculation done in   0.1 sec 

-----------
SCF HESSIAN
-----------

Occupied/Occupied contributions to the Hessian:
   => Occupied/Occupied contributions              ... done (  0.2 sec)
Perturbed density contributions to the Hessian:
   => Perturbed density contributions              ... done (  0.5 sec)
Explicit contributions to the Hessian:
   => Nuclear repulsion Hessian                    ... done (  0.0 sec)
   => HCore and overlap Hessian                    ... done ( 60.7 sec)
   => RI-J Hessian                                 ... done ( 47.5 sec)
   => COSX Hessian                                 ... done (1147.6 sec)
   => XC-Hessian                                   ... done (121.5 sec)
   => CPCM-Hessian                                 ... done ( 46.0 sec)
   => Van der Waals-Hessian                        ... done (  9.4 sec)
   => Explicit contributions done
Dipole derivatives                                 ... done (  0.3 sec)
Mass weighting the Hessian           ... done
Calculating normal modes             ... done
Scaling frequencies                  ... done

-----------------------
VIBRATIONAL FREQUENCIES
-----------------------

Scaling factor for frequencies =  1.000000000  (already applied!)

     0:       0.00 cm**-1
     1:       0.00 cm**-1
     2:       0.00 cm**-1
     3:       0.00 cm**-1
     4:       0.00 cm**-1
     5:       0.00 cm**-1
     6:      27.08 cm**-1
     7:      36.02 cm**-1
     8:      63.08 cm**-1
     9:      67.93 cm**-1
    10:     106.47 cm**-1
    11:     145.28 cm**-1
    12:     157.81 cm**-1
    13:     222.67 cm**-1
    14:     255.29 cm**-1
    15:     261.39 cm**-1
    16:     276.12 cm**-1
    17:     294.14 cm**-1
    18:     366.08 cm**-1
    19:     371.71 cm**-1
    20:     415.34 cm**-1
    21:     455.91 cm**-1
    22:     465.45 cm**-1
    23:     496.86 cm**-1
    24:     537.16 cm**-1
    25:     552.71 cm**-1
    26:     562.37 cm**-1
    27:     568.85 cm**-1
    28:     585.10 cm**-1
    29:     599.77 cm**-1
    30:     634.75 cm**-1
    31:     642.04 cm**-1
    32:     667.74 cm**-1
    33:     707.85 cm**-1
    34:     740.40 cm**-1
    35:     754.18 cm**-1
    36:     769.59 cm**-1
    37:     786.97 cm**-1
    38:     796.17 cm**-1
    39:     802.64 cm**-1
    40:     819.76 cm**-1
    41:     821.62 cm**-1
    42:     854.58 cm**-1
    43:     860.42 cm**-1
    44:     886.54 cm**-1
    45:     910.20 cm**-1
    46:     911.99 cm**-1
    47:     914.23 cm**-1
    48:     917.62 cm**-1
    49:     937.10 cm**-1
    50:     967.40 cm**-1
    51:     990.61 cm**-1
    52:     997.09 cm**-1
    53:    1010.40 cm**-1
    54:    1017.21 cm**-1
    55:    1024.16 cm**-1
    56:    1043.07 cm**-1
    57:    1060.26 cm**-1
    58:    1070.87 cm**-1
    59:    1095.53 cm**-1
    60:    1117.14 cm**-1
    61:    1120.33 cm**-1
    62:    1128.33 cm**-1
    63:    1148.76 cm**-1
    64:    1181.11 cm**-1
    65:    1208.08 cm**-1
    66:    1228.88 cm**-1
    67:    1247.34 cm**-1
    68:    1251.98 cm**-1
    69:    1263.75 cm**-1
    70:    1282.68 cm**-1
    71:    1307.99 cm**-1
    72:    1329.41 cm**-1
    73:    1344.75 cm**-1
    74:    1361.36 cm**-1
    75:    1391.08 cm**-1
    76:    1420.77 cm**-1
    77:    1438.61 cm**-1
    78:    1441.82 cm**-1
    79:    1450.02 cm**-1
    80:    1469.14 cm**-1
    81:    1479.01 cm**-1
    82:    1490.19 cm**-1
    83:    1495.36 cm**-1
    84:    1523.06 cm**-1
    85:    1584.80 cm**-1
    86:    1597.69 cm**-1
    87:    1634.00 cm**-1
    88:    1639.02 cm**-1
    89:    1676.30 cm**-1
    90:    1683.73 cm**-1
    91:    3121.07 cm**-1
    92:    3125.04 cm**-1
    93:    3174.13 cm**-1
    94:    3184.36 cm**-1
    95:    3184.98 cm**-1
    96:    3193.09 cm**-1
    97:    3194.78 cm**-1
    98:    3196.32 cm**-1
    99:    3199.12 cm**-1
   100:    3214.86 cm**-1
   101:    3215.62 cm**-1
   102:    3224.42 cm**-1
   103:    3623.90 cm**-1
   104:    3632.41 cm**-1


------------
NORMAL MODES
------------

These modes are the Cartesian displacements weighted by the diagonal matrix
M(i,i)=1/sqrt(m[i]) where m[i] is the mass of the displaced atom
Thus, these vectors are normalized but *not* orthogonal

                  0          1          2          3          4          5    
      0       0.000000   0.000000   0.000000   0.000000   0.000000   0.000000
      1       0.000000   0.000000   0.000000   0.000000   0.000000   0.000000
      2       0.000000   0.000000   0.000000   0.000000   0.000000   0.000000
      3       0.000000   0.000000   0.000000   0.000000   0.000000   0.000000
      4       0.000000   0.000000   0.000000   0.000000   0.000000   0.000000
      5       0.000000   0.000000   0.000000   0.000000   0.000000   0.000000
      6       0.000000   0.000000   0.000000   0.000000   0.000000   0.000000
      7       0.000000   0.000000   0.000000   0.000000   0.000000   0.000000
      8       0.000000   0.000000   0.000000   0.000000   0.000000   0.000000
      9       0.000000   0.000000   0.000000   0.000000   0.000000   0.000000
     10       0.000000   0.000000   0.000000   0.000000   0.000000   0.000000
     11       0.000000   0.000000   0.000000   0.000000   0.000000   0.000000
     12       0.000000   0.000000   0.000000   0.000000   0.000000   0.000000
     13       0.000000   0.000000   0.000000   0.000000   0.000000   0.000000
     14       0.000000   0.000000   0.000000   0.000000   0.000000   0.000000
     15       0.000000   0.000000   0.000000   0.000000   0.000000   0.000000
     16       0.000000   0.000000   0.000000   0.000000   0.000000   0.000000
     17       0.000000   0.000000   0.000000   0.000000   0.000000   0.000000
     18       0.000000   0.000000   0.000000   0.000000   0.000000   0.000000
     19       0.000000   0.000000   0.000000   0.000000   0.000000   0.000000
     20       0.000000   0.000000   0.000000   0.000000   0.000000   0.000000
     21       0.000000   0.000000   0.000000   0.000000   0.000000   0.000000
     22       0.000000   0.000000   0.000000   0.000000   0.000000   0.000000
     23       0.000000   0.000000   0.000000   0.000000   0.000000   0.000000
     24       0.000000   0.000000   0.000000   0.000000   0.000000   0.000000
     25       0.000000   0.000000   0.000000   0.000000   0.000000   0.000000
     26       0.000000   0.000000   0.000000   0.000000   0.000000   0.000000
     27       0.000000   0.000000   0.000000   0.000000   0.000000   0.000000
     28       0.000000   0.000000   0.000000   0.000000   0.000000   0.000000
     29       0.000000   0.000000   0.000000   0.000000   0.000000   0.000000
     30       0.000000   0.000000   0.000000   0.000000   0.000000   0.000000
     31       0.000000   0.000000   0.000000   0.000000   0.000000   0.000000
     32       0.000000   0.000000   0.000000   0.000000   0.000000   0.000000
     33       0.000000   0.000000   0.000000   0.000000   0.000000   0.000000
     34       0.000000   0.000000   0.000000   0.000000   0.000000   0.000000
     35       0.000000   0.000000   0.000000   0.000000   0.000000   0.000000
     36       0.000000   0.000000   0.000000   0.000000   0.000000   0.000000
     37       0.000000   0.000000   0.000000   0.000000   0.000000   0.000000
     38       0.000000   0.000000   0.000000   0.000000   0.000000   0.000000
     39       0.000000   0.000000   0.000000   0.000000   0.000000   0.000000
     40       0.000000   0.000000   0.000000   0.000000   0.000000   0.000000
     41       0.000000   0.000000   0.000000   0.000000   0.000000   0.000000
     42       0.000000   0.000000   0.000000   0.000000   0.000000   0.000000
     43       0.000000   0.000000   0.000000   0.000000   0.000000   0.000000
     44       0.000000   0.000000   0.000000   0.000000   0.000000   0.000000
     45       0.000000   0.000000   0.000000   0.000000   0.000000   0.000000
     46       0.000000   0.000000   0.000000   0.000000   0.000000   0.000000
     47       0.000000   0.000000   0.000000   0.000000   0.000000   0.000000
     48       0.000000   0.000000   0.000000   0.000000   0.000000   0.000000
     49       0.000000   0.000000   0.000000   0.000000   0.000000   0.000000
     50       0.000000   0.000000   0.000000   0.000000   0.000000   0.000000
     51       0.000000   0.000000   0.000000   0.000000   0.000000   0.000000
     52       0.000000   0.000000   0.000000   0.000000   0.000000   0.000000
     53       0.000000   0.000000   0.000000   0.000000   0.000000   0.000000
     54       0.000000   0.000000   0.000000   0.000000   0.000000   0.000000
     55       0.000000   0.000000   0.000000   0.000000   0.000000   0.000000
     56       0.000000   0.000000   0.000000   0.000000   0.000000   0.000000
     57       0.000000   0.000000   0.000000   0.000000   0.000000   0.000000
     58       0.000000   0.000000   0.000000   0.000000   0.000000   0.000000
     59       0.000000   0.000000   0.000000   0.000000   0.000000   0.000000
     60       0.000000   0.000000   0.000000   0.000000   0.000000   0.000000
     61       0.000000   0.000000   0.000000   0.000000   0.000000   0.000000
     62       0.000000   0.000000   0.000000   0.000000   0.000000   0.000000
     63       0.000000   0.000000   0.000000   0.000000   0.000000   0.000000
     64       0.000000   0.000000   0.000000   0.000000   0.000000   0.000000
     65       0.000000   0.000000   0.000000   0.000000   0.000000   0.000000
     66       0.000000   0.000000   0.000000   0.000000   0.000000   0.000000
     67       0.000000   0.000000   0.000000   0.000000   0.000000   0.000000
     68       0.000000   0.000000   0.000000   0.000000   0.000000   0.000000
     69       0.000000   0.000000   0.000000   0.000000   0.000000   0.000000
     70       0.000000   0.000000   0.000000   0.000000   0.000000   0.000000
     71       0.000000   0.000000   0.000000   0.000000   0.000000   0.000000
     72       0.000000   0.000000   0.000000   0.000000   0.000000   0.000000
     73       0.000000   0.000000   0.000000   0.000000   0.000000   0.000000
     74       0.000000   0.000000   0.000000   0.000000   0.000000   0.000000
     75       0.000000   0.000000   0.000000   0.000000   0.000000   0.000000
     76       0.000000   0.000000   0.000000   0.000000   0.000000   0.000000
     77       0.000000   0.000000   0.000000   0.000000   0.000000   0.000000
     78       0.000000   0.000000   0.000000   0.000000   0.000000   0.000000
     79       0.000000   0.000000   0.000000   0.000000   0.000000   0.000000
     80       0.000000   0.000000   0.000000   0.000000   0.000000   0.000000
     81       0.000000   0.000000   0.000000   0.000000   0.000000   0.000000
     82       0.000000   0.000000   0.000000   0.000000   0.000000   0.000000
     83       0.000000   0.000000   0.000000   0.000000   0.000000   0.000000
     84       0.000000   0.000000   0.000000   0.000000   0.000000   0.000000
     85       0.000000   0.000000   0.000000   0.000000   0.000000   0.000000
     86       0.000000   0.000000   0.000000   0.000000   0.000000   0.000000
     87       0.000000   0.000000   0.000000   0.000000   0.000000   0.000000
     88       0.000000   0.000000   0.000000   0.000000   0.000000   0.000000
     89       0.000000   0.000000   0.000000   0.000000   0.000000   0.000000
     90       0.000000   0.000000   0.000000   0.000000   0.000000   0.000000
     91       0.000000   0.000000   0.000000   0.000000   0.000000   0.000000
     92       0.000000   0.000000   0.000000   0.000000   0.000000   0.000000
     93       0.000000   0.000000   0.000000   0.000000   0.000000   0.000000
     94       0.000000   0.000000   0.000000   0.000000   0.000000   0.000000
     95       0.000000   0.000000   0.000000   0.000000   0.000000   0.000000
     96       0.000000   0.000000   0.000000   0.000000   0.000000   0.000000
     97       0.000000   0.000000   0.000000   0.000000   0.000000   0.000000
     98       0.000000   0.000000   0.000000   0.000000   0.000000   0.000000
     99       0.000000   0.000000   0.000000   0.000000   0.000000   0.000000
    100       0.000000   0.000000   0.000000   0.000000   0.000000   0.000000
    101       0.000000   0.000000   0.000000   0.000000   0.000000   0.000000
    102       0.000000   0.000000   0.000000   0.000000   0.000000   0.000000
    103       0.000000   0.000000   0.000000   0.000000   0.000000   0.000000
    104       0.000000   0.000000   0.000000   0.000000   0.000000   0.000000
                  6          7          8          9         10         11    
      0       0.005200   0.000470   0.009120  -0.009054  -0.001207   0.023078
      1       0.172845   0.036948   0.040700   0.145238   0.053060   0.035957
      2      -0.127260  -0.023677  -0.143134   0.085577  -0.051397   0.050786
      3       0.004385   0.006263  -0.034246   0.077415  -0.005972   0.075367
      4       0.033298   0.125541   0.053037   0.147769   0.046696   0.029233
      5      -0.014794  -0.095679  -0.148146   0.073703  -0.045731   0.050132
      6       0.001864   0.007461  -0.056870   0.115037  -0.010357   0.099806
      7      -0.086760   0.129615   0.008698   0.058170  -0.009224  -0.002252
      8       0.076686  -0.101577  -0.059581   0.041648   0.005194   0.005845
      9       0.000125   0.002660  -0.031407   0.056806  -0.008671   0.056716
     10      -0.060403   0.043681  -0.041462  -0.030072  -0.048854  -0.029164
     11       0.050408  -0.034429   0.029216   0.017456   0.042702  -0.038855
     12      -0.002298   0.002428  -0.038584   0.065412  -0.009546   0.054985
     13      -0.142079   0.027857  -0.066396  -0.103956  -0.063997  -0.051743
     14       0.110507  -0.024159   0.100447  -0.021808   0.059988  -0.067229
     15      -0.002513  -0.002772  -0.005719  -0.000181  -0.005760   0.023625
     16      -0.056205  -0.055019  -0.073446  -0.136044  -0.050972  -0.059302
     17       0.038604   0.041443   0.129557  -0.041120   0.051354  -0.075360
     18      -0.004085  -0.002913  -0.002723  -0.002751  -0.003716   0.019083
     19      -0.087566  -0.061759  -0.036889  -0.134006  -0.004999  -0.038899
     20       0.058528   0.045558   0.121776  -0.073403   0.012860  -0.041113
     21      -0.005988  -0.001252  -0.015900   0.031714  -0.014460   0.072420
     22      -0.129720   0.024038   0.044101  -0.069487  -0.071444  -0.046113
     23       0.086689  -0.013182   0.058231  -0.099151   0.052878  -0.002087
     24      -0.006147  -0.000152  -0.017656   0.044168  -0.014347   0.082336
     25      -0.131387   0.056748   0.114627   0.008693  -0.037123   0.013333
     26       0.087266  -0.037344  -0.012598  -0.106046   0.017325   0.057352
     27      -0.003472  -0.001523  -0.005909   0.019505  -0.001179   0.004898
     28      -0.084623  -0.001521   0.100922   0.017815   0.051553   0.072787
     29       0.055294   0.000855  -0.015891  -0.087552  -0.049774   0.078005
     30      -0.001943  -0.000287  -0.001634   0.018110  -0.000315  -0.013883
     31      -0.050872   0.020134   0.150128   0.092779   0.023336   0.098239
     32       0.032399  -0.016953  -0.081695  -0.074391  -0.041385   0.115088
     33       0.000731  -0.000909   0.023691  -0.035929   0.008613  -0.052604
     34       0.009369  -0.063465   0.093081   0.064639   0.031449   0.091825
     35      -0.007725   0.038203  -0.051278  -0.041677  -0.048043   0.122225
     36       0.003044   0.000354   0.046387  -0.071856  -0.001216  -0.012245
     37       0.082010  -0.044365   0.058661   0.104764  -0.110576  -0.005529
     38      -0.054512   0.025021  -0.092336   0.028210   0.060910   0.053632
     39       0.051069   0.079269  -0.064928  -0.076946  -0.017692  -0.140588
     40       0.139359   0.075497  -0.091840   0.071610  -0.104620  -0.122372
     41      -0.068229  -0.185217   0.034184   0.219167  -0.103710  -0.196483
     42      -0.041707  -0.066780   0.077148   0.020457   0.059486  -0.135006
     43       0.121525   0.201580  -0.193726   0.008458   0.078793  -0.080379
     44      -0.100516   0.006060  -0.118069   0.123232   0.186869  -0.125311
     45       0.000751  -0.003219   0.034663  -0.064418   0.014844  -0.067385
     46       0.009462  -0.142574   0.020631  -0.017857   0.112710   0.089838
     47      -0.007749   0.093576   0.025820  -0.039150  -0.095797   0.094563
     48      -0.001666  -0.003535   0.012903  -0.025432   0.009474  -0.040300
     49      -0.046992  -0.101811   0.019159  -0.050548   0.117405   0.070981
     50       0.030077   0.069052   0.050725  -0.063499  -0.090108   0.056332
     51      -0.001648  -0.004793   0.009294  -0.027504   0.009715  -0.047875
     52      -0.051466  -0.131554  -0.051974  -0.130697   0.105268   0.018293
     53       0.033455   0.091473   0.122130  -0.055993  -0.068964  -0.013322
     54      -0.001129  -0.005813   0.022579  -0.053165  -0.003723   0.004516
     55       0.072447  -0.102064  -0.076760  -0.103516  -0.053742  -0.047378
     56      -0.061422   0.080759   0.102121  -0.009737   0.051311  -0.066624
     57       0.000873  -0.002850   0.009990  -0.024668  -0.004489   0.014846
     58       0.075867  -0.042034  -0.052374  -0.032493  -0.044793  -0.025011
     59      -0.059234   0.035009   0.034077   0.027091   0.039093  -0.038659
     60       0.003349  -0.004155   0.032789  -0.063707  -0.000334  -0.012440
     61       0.195332  -0.047934  -0.015045   0.054405   0.002482   0.009437
     62      -0.150329   0.042542  -0.050375   0.064436  -0.005148   0.005735
     63       0.007300  -0.000328   0.025531  -0.035673   0.002284   0.004815
     64       0.264985   0.036245   0.078326   0.215921   0.100376   0.059528
     65      -0.197581  -0.021003  -0.214358   0.108783  -0.094096   0.084143
     66       0.005874   0.009876  -0.051088   0.117290  -0.006233   0.099083
     67       0.019315   0.192389   0.100294   0.220204   0.088664   0.046019
     68       0.000506  -0.147908  -0.223021   0.087443  -0.083467   0.081453
     69       0.001402   0.012024  -0.093662   0.189426  -0.014693   0.154539
     70      -0.193663   0.198395   0.021557   0.061087  -0.009159  -0.008884
     71       0.162746  -0.157435  -0.065685   0.030729   0.005647   0.004807
     72      -0.002862   0.007448  -0.060766   0.111902  -0.012627   0.071747
     73      -0.253796   0.090342  -0.046508  -0.110265  -0.060666  -0.061747
     74       0.202164  -0.078276   0.098019  -0.045611   0.059217  -0.070411
     75      -0.007148  -0.000606  -0.028969   0.057290  -0.024092   0.113671
     76      -0.157376   0.074747   0.060516  -0.076559  -0.157196  -0.091542
     77       0.105297  -0.045908   0.060932  -0.120285   0.116383  -0.013027
     78      -0.008070   0.002024  -0.026566   0.069839  -0.025407   0.153868
     79      -0.162465   0.131591   0.180942   0.060058  -0.100637   0.011628
     80       0.107819  -0.088108  -0.063008  -0.128693   0.055700   0.095052
     81      -0.003194  -0.000425  -0.011805   0.051613  -0.009744  -0.000272
     82      -0.059939   0.091114   0.206940   0.145900  -0.043734   0.114173
     83       0.037316  -0.068185  -0.133678  -0.074473  -0.004270   0.122498
     84       0.003357  -0.004113   0.104051  -0.146835  -0.031172   0.153781
     85       0.104326  -0.183257   0.163055   0.170511  -0.306674  -0.056327
     86      -0.068768   0.113747  -0.156944  -0.016874   0.185370   0.092202
     87       0.084604   0.129334  -0.075893  -0.162354  -0.070718   0.002667
     88       0.196639   0.002938  -0.067330   0.124077  -0.318101  -0.237747
     89      -0.088178  -0.233175   0.045681   0.292808  -0.086330  -0.323565
     90       0.085529   0.138207  -0.184202  -0.052386   0.000925  -0.326897
     91       0.114289   0.134966  -0.126658   0.038962   0.016988  -0.080653
     92      -0.037405  -0.318111   0.147889   0.268263  -0.332110  -0.193325
     93      -0.075722  -0.118206   0.082264   0.130112   0.116379  -0.332398
     94       0.084582   0.347813  -0.296176  -0.073891   0.323194   0.028404
     95      -0.092214   0.006862  -0.113035   0.108216   0.162202  -0.095730
     96      -0.073505  -0.120408   0.167586   0.003975   0.058090   0.013484
     97       0.165729   0.217611  -0.240293   0.020445  -0.002338  -0.187581
     98      -0.143596   0.091789  -0.209948   0.130358   0.410391  -0.193847
     99       0.002080  -0.008132   0.014177  -0.045265   0.020360  -0.109959
    100      -0.008826  -0.205847  -0.114200  -0.180486   0.154386   0.014160
    101       0.006199   0.140418   0.167391  -0.031845  -0.097129  -0.041420
    102       0.003860  -0.008644   0.070011  -0.138248   0.004314  -0.066438
    103       0.303396  -0.114547  -0.020769   0.055646   0.011649   0.014904
    104      -0.237337   0.096640  -0.049929   0.071753  -0.013042   0.007324
                 12         13         14         15         16         17    
      0      -0.009817  -0.193342   0.008580  -0.008485   0.019019   0.076707
      1      -0.096985   0.062367  -0.007826  -0.150709  -0.073476   0.054691
      2       0.071261   0.068905   0.009201   0.120700   0.076863   0.041855
      3      -0.014310  -0.120142   0.013322   0.001385   0.033738   0.144092
      4      -0.105506   0.056249   0.039761   0.114209  -0.093572   0.055642
      5       0.078714   0.066907  -0.029677  -0.093756   0.091489   0.034138
      6      -0.011065  -0.074009   0.012910   0.002258   0.047369   0.171434
      7       0.026950  -0.006643   0.007643   0.145116   0.084448  -0.040637
      8      -0.022585  -0.012185  -0.007413  -0.117020  -0.076361  -0.003118
      9      -0.003070  -0.119951   0.006112  -0.003420   0.025959   0.060642
     10       0.125804  -0.049946  -0.039233  -0.032806   0.133156  -0.111948
     11      -0.096729  -0.071640   0.025168   0.028699  -0.143713  -0.074824
     12      -0.003246  -0.114115   0.004106  -0.010667   0.010316   0.022320
     13       0.103922  -0.069918  -0.040014  -0.228338  -0.051402  -0.057505
     14      -0.076919  -0.095958   0.026072   0.186359   0.007031  -0.090895
     15      -0.003736  -0.097299   0.004231  -0.001004  -0.001409   0.012023
     16       0.032989  -0.068263   0.024810  -0.000326  -0.177085  -0.001298
     17      -0.018691  -0.088026  -0.024856   0.001384   0.118630  -0.078141
     18      -0.007842  -0.021603   0.000202  -0.000423  -0.012679  -0.030019
     19      -0.114297  -0.009586   0.033268  -0.008346  -0.149123   0.101248
     20       0.090295  -0.016435  -0.023363   0.004631   0.144505   0.058617
     21      -0.013089   0.070220   0.002716   0.000496  -0.029882  -0.116902
     22      -0.167554   0.022677   0.160858  -0.031631   0.061818   0.043960
     23       0.124066   0.003458  -0.109002   0.020520  -0.002732   0.089988
     24      -0.011209   0.086063  -0.005849   0.002263  -0.034565  -0.149938
     25      -0.094351   0.050829  -0.010079   0.001616   0.152046   0.023487
     26       0.067644   0.054744   0.011623  -0.002054  -0.081145   0.080643
     27      -0.001115   0.082441  -0.021041   0.005372  -0.038340  -0.172825
     28       0.010345   0.037512  -0.174290   0.031620   0.046084   0.056755
     29      -0.007514   0.067644   0.127697  -0.023361  -0.014671   0.060988
     30       0.007372   0.086959  -0.021202   0.005229  -0.044495  -0.166472
     31       0.174068   0.011544  -0.136741   0.023918  -0.158756   0.020597
     32      -0.126435   0.064776   0.096598  -0.015985   0.086332  -0.067553
     33       0.012667   0.119979  -0.003576   0.001216  -0.010413  -0.035811
     34       0.103850   0.020607   0.106133  -0.017892  -0.032248  -0.053889
     35      -0.081334   0.049185  -0.068524   0.012782  -0.007261  -0.063176
     36       0.010722   0.185537   0.002528   0.000195  -0.010543   0.000793
     37       0.034165  -0.016150   0.117728  -0.022713  -0.071616  -0.063115
     38      -0.032601  -0.013387  -0.088325   0.017887   0.014529  -0.118634
     39      -0.069732   0.211403  -0.135259   0.025093   0.056913   0.106105
     40      -0.061231  -0.012265  -0.036781   0.005420   0.007716   0.024090
     41      -0.048174  -0.015996  -0.079527   0.013571   0.022502   0.040634
     42       0.110809   0.205895   0.143063  -0.026666  -0.035808   0.105763
     43       0.025003  -0.021136   0.045179  -0.008691  -0.003781   0.011521
     44       0.095402  -0.017365   0.061788  -0.010862  -0.000875   0.022903
     45       0.009206   0.109223  -0.001411   0.000450   0.012479   0.015130
     46      -0.036084   0.042101   0.115531  -0.016040   0.191107  -0.044522
     47       0.018816   0.047878  -0.068207   0.009328  -0.126616   0.062977
     48       0.000711   0.062754  -0.014070   0.003215  -0.010298  -0.078261
     49      -0.079633   0.041721  -0.092325   0.017783   0.129814   0.055299
     50       0.055501   0.052591   0.074468  -0.015073  -0.056454   0.115644
     51      -0.002823   0.013152  -0.014717   0.003229  -0.016273  -0.079017
     52      -0.134747   0.000922  -0.104803   0.020533  -0.071473   0.126594
     53       0.100104  -0.002533   0.076552  -0.016907   0.098744   0.097554
     54      -0.001496  -0.140416   0.007492   0.006311   0.011812   0.059007
     55       0.090549  -0.062209   0.036735   0.219778  -0.086795  -0.051667
     56      -0.065526  -0.083477  -0.037149  -0.174764   0.032910  -0.107374
     57      -0.000271  -0.162670   0.005841   0.001173   0.019766   0.045993
     58       0.126737  -0.045489  -0.017851   0.083861   0.117424  -0.107519
     59      -0.097765  -0.067359   0.007742  -0.065453  -0.131688  -0.081314
     60      -0.001509  -0.235291   0.004259  -0.005858   0.010528   0.003427
     61       0.040095   0.019840  -0.039902  -0.108937   0.100725  -0.050027
     62      -0.033699   0.010149   0.029385   0.088669  -0.094023  -0.013923
     63      -0.012588  -0.216334   0.007114  -0.014777   0.006235   0.045103
     64      -0.206614   0.093550  -0.006819  -0.318943  -0.201187   0.127484
     65       0.155654   0.108625   0.012550   0.255824   0.201340   0.077181
     66      -0.020785  -0.078632   0.016370   0.005853   0.034236   0.176535
     67      -0.221852   0.091744   0.090940   0.234354  -0.244295   0.114971
     68       0.169286   0.117019  -0.069201  -0.191555   0.225807   0.043264
     69      -0.016864   0.012388   0.018676   0.004914   0.072699   0.296279
     70       0.006689  -0.014174   0.031186   0.258382   0.063372  -0.048140
     71      -0.005612  -0.015781  -0.027060  -0.208424  -0.062500  -0.012218
     72      -0.003018  -0.109784   0.004362  -0.015023   0.013301   0.004971
     73       0.045184  -0.072282  -0.031227  -0.363013  -0.116689  -0.041227
     74      -0.028925  -0.096206   0.018602   0.299233   0.057944  -0.096202
     75      -0.017914   0.130574   0.009651   0.000136  -0.045941  -0.175162
     76      -0.214091   0.002538   0.350285  -0.071944   0.150731   0.040950
     77       0.158121  -0.044275  -0.235197   0.046347  -0.042644   0.151398
     78      -0.016287   0.108072   0.004553   0.000094  -0.033394  -0.132174
     79      -0.093999   0.061290   0.059533  -0.014646   0.256707  -0.000257
     80       0.064811   0.058211  -0.031260   0.008095  -0.152743   0.107507
     81       0.007616   0.075128  -0.025200   0.006331  -0.067360  -0.233931
     82       0.264298  -0.005098  -0.057863   0.007601  -0.305626  -0.013589
     83      -0.191087   0.062193   0.035308  -0.002974   0.165029  -0.122615
     84      -0.003038   0.237159   0.004231   0.000795  -0.027354  -0.054101
     85      -0.061883  -0.011045   0.054489  -0.012275  -0.058431  -0.048339
     86       0.028412  -0.013492  -0.047606   0.011198   0.005540  -0.129351
     87      -0.147576   0.201493  -0.230592   0.043703   0.060158  -0.023454
     88      -0.231018  -0.010824  -0.268602   0.047259   0.083969   0.077208
     89      -0.006161  -0.007159  -0.031356   0.003771   0.028965   0.150259
     90      -0.127693   0.230228  -0.248831   0.045572   0.145657   0.261286
     91       0.022080  -0.011214   0.061884  -0.012333  -0.022032   0.016890
     92      -0.174490  -0.026674  -0.210146   0.037052   0.038571  -0.012773
     93       0.210204   0.223819   0.289986  -0.055796  -0.058399   0.284835
     94       0.162336  -0.040575   0.199683  -0.035627  -0.049819  -0.064565
     95       0.069223  -0.019884   0.025785  -0.003943   0.005906  -0.005683
     96       0.154970   0.192267   0.216840  -0.039269  -0.088092  -0.025974
     97      -0.072052  -0.007047  -0.094662   0.016294   0.055846   0.100863
     98       0.252441  -0.020217   0.265093  -0.048614  -0.036486   0.101103
     99       0.000615  -0.013405  -0.024100   0.007388  -0.017480  -0.105937
    100      -0.135161  -0.006018  -0.137876   0.041053  -0.158573   0.141970
    101       0.102306  -0.006879   0.094331  -0.028886   0.157368   0.073936
    102       0.002801  -0.338701  -0.000232  -0.008779  -0.012756  -0.110428
    103       0.029055   0.027790  -0.057100  -0.220762   0.100117  -0.042435
    104      -0.025291   0.014393   0.043746   0.178995  -0.090919  -0.007416
                 18         19         20         21         22         23    
      0       0.012837  -0.040449  -0.000408  -0.004065   0.000476  -0.104236
      1       0.039534   0.064411  -0.041630  -0.048514   0.032976  -0.015242
      2      -0.058216   0.047768   0.035827   0.040830  -0.026134  -0.024495
      3       0.002332   0.003589  -0.000600  -0.003760   0.000037  -0.101315
      4       0.061587   0.068518  -0.053890  -0.048629   0.032495  -0.019672
      5      -0.075012   0.041161   0.045743   0.040873  -0.025711  -0.029823
      6      -0.015012   0.041402   0.005748   0.003488  -0.003684  -0.080181
      7      -0.097358  -0.055015   0.095353   0.102665  -0.069455  -0.014364
      8       0.090462  -0.004687  -0.077381  -0.084827   0.055774  -0.020476
      9       0.007339  -0.040063  -0.001472  -0.006530   0.004152   0.041698
     10      -0.046870  -0.095276  -0.018829  -0.136609   0.112145   0.045094
     11       0.078634  -0.084678   0.011766   0.107695  -0.090869   0.052523
     12       0.021843  -0.069642  -0.004895  -0.000469  -0.001670   0.099024
     13       0.102392  -0.002280  -0.066260   0.018952  -0.043000  -0.030942
     14      -0.066522  -0.063054   0.054615  -0.014884   0.034669  -0.027739
     15       0.002781   0.006532  -0.000686   0.004050  -0.001854   0.055895
     16       0.100193   0.042566  -0.008815   0.070025  -0.056542  -0.061047
     17      -0.086913  -0.006296   0.009828  -0.054131   0.045288  -0.070107
     18      -0.012781   0.038831   0.003929   0.003145   0.003750   0.107765
     19      -0.101332   0.090798   0.128141   0.009895   0.072719  -0.020711
     20       0.022320   0.155766  -0.093936  -0.002494  -0.050052  -0.026650
     21      -0.003278   0.007850   0.004760   0.002917   0.004370   0.171904
     22      -0.037992   0.106974   0.152450  -0.034033   0.083624  -0.009234
     23      -0.019486   0.144977  -0.110427   0.028068  -0.057563  -0.014529
     24       0.000565  -0.016647  -0.008767   0.002793  -0.003912   0.160470
     25      -0.017244  -0.007878  -0.198401  -0.008934  -0.129748   0.033005
     26       0.012125   0.022582   0.132525   0.008120   0.085658   0.064429
     27      -0.023467   0.095794  -0.006625   0.007864   0.006550  -0.053216
     28       0.072650  -0.042030  -0.062861   0.151290   0.130866   0.069675
     29      -0.023927  -0.060609   0.044919  -0.100422  -0.089095   0.112618
     30      -0.028092   0.111712   0.002919  -0.002903  -0.000978  -0.079480
     31       0.025570  -0.043218   0.156442  -0.099689  -0.038737  -0.053630
     32       0.003858  -0.080638  -0.101047   0.061290   0.026699  -0.104487
     33      -0.011052   0.060968   0.001360  -0.001329  -0.003779   0.023303
     34       0.031748  -0.022221   0.069511  -0.078342  -0.071680  -0.101112
     35      -0.009270  -0.065052  -0.044380   0.046535   0.049294  -0.153373
     36       0.012973  -0.071094   0.000059  -0.001386   0.001548  -0.116075
     37      -0.119294   0.030252  -0.097525   0.063833   0.056220  -0.069761
     38       0.045818   0.099399   0.059183  -0.041213  -0.035703  -0.117339
     39       0.127836  -0.155492   0.088932  -0.061083  -0.048003  -0.107531
     40      -0.010415   0.001160  -0.017011   0.016243   0.014777   0.008258
     41       0.025007   0.019221   0.023503  -0.012640  -0.011008   0.036216
     42      -0.046424  -0.191783  -0.076654   0.051139   0.048811  -0.105901
     43      -0.028200   0.015381  -0.024732   0.016932   0.013269   0.032344
     44      -0.004438   0.010495   0.005451  -0.008424  -0.008970   0.016976
     45      -0.008116   0.087519   0.000410   0.002229  -0.005014   0.153938
     46       0.176545  -0.006210   0.060868  -0.047022  -0.078007  -0.003726
     47      -0.094238  -0.100337  -0.036890   0.028038   0.051456   0.012933
     48      -0.021956   0.104420  -0.004443   0.006801   0.005409   0.023558
     49       0.078007  -0.030491  -0.015454   0.109155   0.129739   0.089929
     50      -0.028361  -0.055120   0.013408  -0.071368  -0.088482   0.142338
     51      -0.042131   0.128677  -0.007685  -0.001626  -0.001666   0.007276
     52      -0.234211   0.007568  -0.065456  -0.081786  -0.051760   0.055762
     53       0.132204   0.136350   0.038609   0.060959   0.033008   0.066774
     54      -0.008900   0.054282   0.000149   0.003130  -0.000649  -0.034608
     55       0.123116  -0.000712  -0.066317   0.030524  -0.037214  -0.016483
     56      -0.082112  -0.067347   0.053127  -0.024137   0.029396  -0.016782
     57       0.001512  -0.011271  -0.000218  -0.004667   0.004139  -0.012818
     58      -0.023180  -0.089560  -0.027276  -0.121074   0.101235   0.054342
     59       0.059459  -0.090665   0.018604   0.095098  -0.081977   0.062324
     60       0.019173  -0.093257   0.003625   0.001657  -0.003034  -0.024265
     61      -0.109310  -0.042681   0.097042   0.102761  -0.065921   0.052236
     62       0.093814   0.008999  -0.079534  -0.082815   0.054102   0.064467
     63       0.021773  -0.062050  -0.002063  -0.002446  -0.001199  -0.074924
     64       0.113410   0.117766  -0.069529  -0.006741  -0.014801  -0.059700
     65      -0.133989   0.067650   0.059914   0.007058   0.011896  -0.074746
     66      -0.002297   0.039570  -0.002064  -0.001310  -0.001654  -0.085233
     67       0.160630   0.129316  -0.097437  -0.007485  -0.013094  -0.005141
     68      -0.171743   0.056750   0.081474   0.009182   0.011430  -0.008201
     69      -0.049939   0.171192   0.014031   0.016653  -0.012147  -0.187754
     70      -0.142643  -0.081520   0.218140   0.379133  -0.286987  -0.008800
     71       0.130959   0.001475  -0.177138  -0.308741   0.231749  -0.011165
     72       0.039229  -0.127770  -0.004065   0.000115   0.004204   0.178334
     73       0.103273   0.017435   0.057294   0.136035   0.001931  -0.058020
     74      -0.077920  -0.043271  -0.046840  -0.110882  -0.005613  -0.054327
     75       0.013472  -0.059291   0.010759  -0.001707   0.002338   0.214768
     76       0.003818   0.161383   0.252232  -0.124611   0.043513  -0.024966
     77      -0.062168   0.175841  -0.179321   0.089742  -0.030359  -0.045433
     78       0.033432  -0.162932  -0.011375  -0.004917  -0.017296   0.344209
     79      -0.049182  -0.051097  -0.380517  -0.182012  -0.447581   0.074086
     80       0.050796  -0.020879   0.257353   0.124188   0.299066   0.131136
     81      -0.038500   0.110040  -0.000714  -0.004210   0.001316  -0.211980
     82      -0.159744  -0.064721   0.011550  -0.028653   0.018997  -0.174156
     83       0.124999  -0.067304  -0.001023   0.008682  -0.012087  -0.171379
     84       0.026933  -0.153871  -0.000288  -0.003405   0.004875  -0.277054
     85      -0.131057   0.019018  -0.131302   0.098065   0.088192  -0.067388
     86       0.054414   0.100784   0.080793  -0.063243  -0.055962  -0.129373
     87       0.146244  -0.047830   0.119991  -0.079157  -0.062418  -0.226603
     88       0.128002   0.011695   0.114645  -0.075767  -0.066904   0.059583
     89       0.027529  -0.066638   0.015102  -0.009777  -0.009658   0.134416
     90       0.271462  -0.261778   0.202578  -0.143513  -0.122843   0.010406
     91      -0.060643  -0.013372  -0.063040   0.047232   0.042812   0.000637
     92       0.054592   0.092681   0.058812  -0.034099  -0.030402   0.001771
     93      -0.128060  -0.361962  -0.191269   0.138861   0.129626   0.019381
     94      -0.105701   0.072630  -0.080584   0.051369   0.041612  -0.003417
     95       0.014805   0.039133   0.029566  -0.026294  -0.025245  -0.003061
     96      -0.110066  -0.099726  -0.109535   0.066906   0.060538  -0.225566
     97       0.065893  -0.041446   0.046582  -0.027961  -0.024176   0.104743
     98      -0.106747  -0.063931  -0.111207   0.077376   0.066288   0.103483
     99      -0.087344   0.271665  -0.022095  -0.011928  -0.016433  -0.110086
    100      -0.429679  -0.002385  -0.218498  -0.296733  -0.357504   0.033965
    101       0.242872   0.214528   0.135670   0.202229   0.233840   0.025377
    102       0.052925  -0.237494   0.005606   0.009507  -0.012021   0.056817
    103      -0.175567  -0.052433   0.228091   0.377907  -0.280367   0.041487
    104       0.143685   0.031639  -0.185213  -0.305127   0.227641   0.063543
                 24         25         26         27         28         29    
      0       0.044227  -0.003884   0.003253   0.093144   0.215510   0.002786
      1      -0.067334  -0.003059  -0.002198   0.024781  -0.019758   0.186032
      2      -0.077139   0.008561  -0.001405   0.031352  -0.021272  -0.151584
      3       0.109906  -0.008796   0.005187   0.045996   0.192834  -0.009158
      4      -0.066230   0.006697  -0.000980   0.031049  -0.004464  -0.184040
      5      -0.077429   0.000849  -0.001964   0.043794   0.010262   0.147079
      6       0.034725  -0.004653   0.001999   0.026597   0.056387   0.005086
      7       0.057214   0.000743   0.002145   0.024458   0.138804   0.126479
      8       0.069945  -0.006480   0.003642   0.027607   0.169589  -0.106432
      9       0.071986  -0.002795   0.000148  -0.086052  -0.122939   0.007777
     10       0.080057  -0.017244   0.000638  -0.037838   0.027442   0.102514
     11       0.119453   0.007943   0.003339  -0.060821   0.020800  -0.081593
     12       0.105755  -0.000316   0.000062  -0.132157  -0.169900   0.001559
     13      -0.043177   0.086478  -0.001870   0.057271   0.003090  -0.077591
     14      -0.096325  -0.069971  -0.001083   0.051500   0.002922   0.060334
     15      -0.098304   0.005129  -0.003890  -0.016685  -0.123634   0.002152
     16      -0.111938  -0.017216  -0.001735   0.072940   0.012798   0.029482
     17      -0.133871   0.021527  -0.002580   0.090888   0.007552  -0.026754
     18      -0.098570   0.006536  -0.003643  -0.027561  -0.061564   0.001481
     19       0.010133  -0.005437  -0.003674  -0.078829   0.014349   0.030887
     20       0.013764   0.009091   0.006228  -0.131400   0.014910  -0.017924
     21      -0.132949   0.011287  -0.000865  -0.094614   0.170975  -0.001818
     22       0.056782   0.027972   0.004703  -0.120946   0.042789  -0.018557
     23       0.035698  -0.014732   0.003362  -0.169828   0.077176   0.016884
     24      -0.135460   0.008274  -0.000882  -0.051472   0.181055  -0.001420
     25       0.039709  -0.025427   0.005345   0.046894   0.027247   0.015785
     26       0.081138   0.007922  -0.002805   0.055727   0.050399  -0.010781
     27       0.004168   0.002320   0.004472  -0.072430   0.097566   0.000693
     28       0.004668   0.000881  -0.003685   0.068950   0.013301   0.010201
     29       0.014442  -0.006421  -0.000867   0.088844   0.023514  -0.008662
     30       0.056549  -0.002267   0.007279  -0.029895   0.060255   0.000081
     31      -0.030163   0.009704   0.070479  -0.037129  -0.013625  -0.007741
     32      -0.038560   0.000623  -0.045296  -0.057386  -0.006408   0.005700
     33       0.109940  -0.011580  -0.000374   0.126098  -0.044877  -0.000275
     34      -0.014593  -0.003211  -0.020503  -0.047660  -0.022718   0.005178
     35      -0.014487   0.007455   0.018793  -0.062175  -0.041492  -0.002194
     36       0.069815  -0.005926   0.002132   0.044400  -0.083015   0.000582
     37       0.079743  -0.004457   0.028004   0.055766  -0.083554  -0.000379
     38       0.125635  -0.012579  -0.011860   0.082894  -0.129452   0.001659
     39      -0.027593   0.001226  -0.024707  -0.058003  -0.019082   0.001698
     40       0.003519   0.000500   0.003690   0.006013  -0.005902  -0.000797
     41       0.006073  -0.001543  -0.010469   0.021617   0.002834  -0.000420
     42      -0.024754   0.005638   0.021363  -0.052154  -0.022791  -0.000402
     43       0.005954  -0.000554   0.006815   0.020506   0.004384  -0.000506
     44       0.004969  -0.001609  -0.002783   0.011430  -0.004211   0.000613
     45       0.118061  -0.014729  -0.003601   0.204947  -0.041693  -0.001210
     46      -0.021363  -0.007488  -0.022303   0.019808  -0.017574   0.010682
     47      -0.013572   0.006000   0.012980   0.037251  -0.031814  -0.008179
     48       0.041703  -0.003279   0.000279   0.062989  -0.034381  -0.001201
     49       0.018053   0.009991  -0.009053   0.069631  -0.013488  -0.016299
     50       0.012511  -0.013767   0.000109   0.114908  -0.020211   0.009009
     51      -0.005791   0.002184   0.000980  -0.007154  -0.051374  -0.000781
     52       0.012084   0.004701   0.000693  -0.089334   0.009464  -0.018539
     53      -0.005853   0.000634  -0.000402  -0.116101   0.014503   0.015298
     54      -0.222532   0.010926  -0.006319   0.056096  -0.142282   0.002174
     55      -0.038262  -0.005990   0.000630   0.035566   0.024491   0.062322
     56      -0.066722   0.005918  -0.002169   0.061597   0.027675  -0.052784
     57      -0.085346   0.005547  -0.003188   0.009249  -0.102952  -0.003275
     58       0.081744  -0.021007   0.001641  -0.054077  -0.004654  -0.093346
     59       0.112203   0.009890   0.001774  -0.066553  -0.010061   0.077503
     60       0.048124  -0.001330   0.001180   0.010311   0.045830  -0.006468
     61      -0.018725   0.003456  -0.001807  -0.055669  -0.135563  -0.129483
     62      -0.022524   0.003486  -0.002865  -0.065422  -0.160889   0.108966
     63       0.027275  -0.000881   0.001790   0.069559   0.142774   0.013542
     64      -0.033948   0.008126  -0.000325   0.059517   0.089909   0.434732
     65      -0.050182  -0.007697   0.001421   0.071977   0.105750  -0.355343
     66       0.073320  -0.005924   0.003342   0.015237   0.072994  -0.017321
     67      -0.089946   0.035177  -0.001457  -0.001940  -0.120595  -0.445099
     68      -0.128296  -0.018662  -0.005220   0.010681  -0.124883   0.362725
     69      -0.146939   0.003115  -0.001201   0.150428   0.082137   0.001906
     70       0.088442   0.039997   0.003377   0.010303   0.132187   0.118281
     71       0.065068  -0.038877   0.002981   0.024182   0.171056  -0.099485
     72       0.319188  -0.021020   0.004646  -0.289195  -0.218664   0.004603
     73      -0.293807  -0.754455   0.016161  -0.024013   0.017005  -0.193398
     74      -0.024552   0.629633  -0.018668   0.214907   0.019990   0.153157
     75      -0.121486   0.008108  -0.000312   0.000428   0.275746  -0.006069
     76       0.065544   0.052966   0.019091  -0.177421  -0.011135  -0.069699
     77       0.017787  -0.027375  -0.006340  -0.224881   0.009586   0.053327
     78      -0.208817   0.004825  -0.007274   0.145161   0.180916  -0.006081
     79       0.010327  -0.051336   0.024261   0.086569   0.025546   0.001409
     80       0.065117   0.024146  -0.019144   0.125820   0.052889  -0.003120
     81       0.011549   0.004709  -0.036215  -0.159322   0.082893  -0.000056
     82       0.029126  -0.003779  -0.823447  -0.144189   0.043097  -0.028839
     83      -0.136112   0.018697   0.547642  -0.132670  -0.020095   0.020716
     84       0.014355   0.002318   0.006706  -0.078018  -0.080391   0.001554
     85       0.081486  -0.002045   0.014872   0.057338  -0.084140  -0.004037
     86       0.122417  -0.013764  -0.003192   0.075799  -0.131427   0.004080
     87       0.141836  -0.014533  -0.036150   0.074880  -0.194320   0.001791
     88      -0.031353  -0.001458  -0.025975  -0.010421   0.033881   0.002384
     89      -0.132795   0.010760  -0.005304  -0.086921   0.145702  -0.000102
     90      -0.245565   0.017233  -0.025247  -0.245615   0.191531   0.005610
     91       0.001818   0.002326   0.001573   0.000617  -0.004926  -0.002513
     92       0.103162  -0.011851  -0.007461   0.113168  -0.088650   0.000996
     93      -0.236024   0.030358   0.024458  -0.231266   0.182953  -0.006397
     94       0.106047  -0.008925   0.019851   0.113600  -0.088358  -0.001023
     95       0.038245  -0.005678  -0.003792   0.039563  -0.036492   0.001733
     96       0.142084  -0.009841   0.045952   0.080826  -0.198697   0.002276
     97      -0.112967   0.009062  -0.024574  -0.080525   0.128169  -0.001318
     98      -0.077100   0.010020   0.024506  -0.039316   0.082849  -0.003604
     99       0.039267   0.009677   0.008322  -0.241646  -0.004448   0.003492
    100       0.012248   0.001354   0.005959  -0.132641   0.023248  -0.024017
    101       0.017830   0.006524  -0.000405  -0.197315   0.030266   0.021063
    102       0.270164  -0.009694   0.005951  -0.102945   0.066879  -0.004756
    103      -0.021058   0.032198  -0.001191  -0.051104  -0.139327  -0.147121
    104      -0.042537  -0.018866  -0.003807  -0.056598  -0.157663   0.122924
                 30         31         32         33         34         35    
      0       0.257178  -0.003300  -0.015607   0.032516   0.000796   0.002103
      1       0.064466   0.027882  -0.007071  -0.020836   0.009167   0.035419
      2       0.086945  -0.023098  -0.009754  -0.025266  -0.008136  -0.028724
      3      -0.241688   0.006423   0.035304   0.040592   0.000731   0.000979
      4       0.095384  -0.034335  -0.008006   0.001315   0.022760   0.041611
      5       0.112734   0.026863  -0.008188   0.006082  -0.018496  -0.033171
      6      -0.229242   0.008099   0.020477  -0.044044  -0.000461   0.000687
      7       0.098544   0.011038   0.006639   0.125150   0.019071   0.041877
      8       0.107293  -0.014695   0.008858   0.152641  -0.011564  -0.031858
      9      -0.156868  -0.002127  -0.001714  -0.076031  -0.000134  -0.001578
     10       0.015886  -0.040225   0.001091   0.035676   0.010823  -0.023097
     11       0.017647   0.024297   0.000342   0.044138  -0.007079   0.019028
     12      -0.102919  -0.002619  -0.011001  -0.019132  -0.001013  -0.001044
     13      -0.095409   0.051445   0.015887  -0.051389  -0.054258  -0.041153
     14      -0.122887  -0.023223   0.020126  -0.069839   0.039666   0.031631
     15      -0.010643  -0.000179   0.012136   0.073953   0.006807   0.006986
     16      -0.083508  -0.070832   0.012087  -0.038211   0.156467   0.157145
     17      -0.093281   0.073507   0.011730  -0.027167  -0.128178  -0.127055
     18      -0.005451  -0.008504   0.036473   0.223101   0.001471  -0.001843
     19      -0.009317  -0.265387   0.009629   0.029784  -0.016598  -0.078514
     20       0.019614   0.172222   0.028982   0.035499   0.012731   0.053867
     21       0.011322   0.002856   0.143976  -0.030190  -0.003779  -0.002273
     22       0.016645   0.120039   0.001806  -0.070044  -0.029856  -0.006583
     23       0.009526  -0.096381   0.008322  -0.106922   0.022321   0.005030
     24      -0.001223  -0.003721   0.118438  -0.043833  -0.004585  -0.003939
     25      -0.015050  -0.109650  -0.078926  -0.187397  -0.022566  -0.027139
     26      -0.008955   0.071384  -0.106716  -0.289359   0.011203   0.013159
     27      -0.014203  -0.004397  -0.088450  -0.129092  -0.002708   0.000051
     28      -0.008903  -0.058611  -0.006949  -0.059916  -0.058486   0.020316
     29      -0.003648   0.042061  -0.011745  -0.103234   0.035994  -0.016626
     30      -0.008462  -0.000048  -0.096358  -0.155157   0.003875  -0.001892
     31      -0.005051   0.055258  -0.031019   0.050714   0.111446  -0.047365
     32      -0.016429  -0.034492  -0.056406   0.070451  -0.072216   0.033307
     33       0.014208  -0.002767   0.029369  -0.019483  -0.012290   0.005969
     34      -0.006921  -0.052220  -0.027816   0.047868  -0.288221   0.130825
     35      -0.002846   0.035019  -0.033301   0.061813   0.194955  -0.085855
     36       0.026538  -0.002253   0.086135   0.004480  -0.001385   0.000827
     37       0.029016   0.004890   0.101615  -0.009860  -0.006560   0.004182
     38       0.045125  -0.009690   0.162170  -0.014806   0.001771  -0.003955
     39       0.011768  -0.012425   0.055730  -0.014124  -0.034898   0.012215
     40       0.002981   0.008484   0.013364  -0.002098   0.043070  -0.019152
     41      -0.002925   0.001822  -0.012272   0.013132   0.014270  -0.006472
     42       0.013138   0.009388   0.054571  -0.016141   0.033953  -0.014032
     43      -0.004079   0.003284  -0.019726   0.012790   0.004698  -0.000274
     44       0.000846  -0.007849   0.006483   0.003964  -0.044936   0.020126
     45      -0.003589   0.000933  -0.034531   0.076181   0.007611  -0.001304
     46      -0.021859  -0.057855  -0.069981   0.104275   0.131940  -0.081018
     47      -0.024393   0.046492  -0.108213   0.159367  -0.083199   0.058022
     48      -0.025799   0.010459  -0.125179   0.143300   0.004641   0.004612
     49       0.004627   0.132596   0.005640   0.033339   0.011322   0.062821
     50      -0.010951  -0.084026  -0.003906   0.070602  -0.006954  -0.040427
     51      -0.034437   0.009635  -0.131126   0.232288   0.003569   0.001940
     52       0.026675   0.085507   0.087789   0.059428  -0.039677   0.002896
     53       0.022016  -0.067215   0.119095   0.105504   0.028685   0.001965
     54       0.084576   0.007004  -0.007739  -0.054675  -0.004207  -0.002940
     55      -0.112989   0.109473   0.022630   0.018971  -0.076515  -0.064305
     56      -0.152945  -0.069836   0.032255   0.009919   0.059024   0.051063
     57       0.165744  -0.005711  -0.027932  -0.092863  -0.000819  -0.000741
     58      -0.016787  -0.039130   0.001543   0.001466   0.000482  -0.015227
     59      -0.007619   0.024574  -0.000353  -0.002299   0.000285   0.012018
     60       0.256819  -0.010597  -0.030803  -0.062234   0.000885   0.001622
     61       0.064567  -0.040203  -0.020932  -0.098311   0.025350   0.040664
     62       0.098268   0.020542  -0.027634  -0.121676  -0.021575  -0.033938
     63       0.385477  -0.004649  -0.038129  -0.029411  -0.006982  -0.014330
     64      -0.106981   0.137490   0.023411   0.072144  -0.178541  -0.374433
     65      -0.136540  -0.096541   0.029566   0.075051   0.144630   0.303353
     66      -0.407970   0.011439   0.039926  -0.055281  -0.008222  -0.016664
     67      -0.050222  -0.007600  -0.005420  -0.078485  -0.163914  -0.373482
     68      -0.078400   0.012721  -0.001866  -0.107011   0.129655   0.300555
     69      -0.140231   0.018462   0.012754  -0.122156  -0.009314  -0.011735
     70       0.101359   0.107622   0.005448   0.139994  -0.147436  -0.258797
     71       0.100346  -0.093756   0.010391   0.153939   0.123493   0.211523
     72      -0.002183  -0.017723  -0.065325   0.000629  -0.002916  -0.005851
     73      -0.084444   0.294549   0.017860  -0.044348  -0.133035  -0.111112
     74      -0.197624  -0.212269   0.051259  -0.088539   0.105296   0.091816
     75       0.002834   0.024929   0.089489  -0.325295   0.000946   0.003726
     76       0.046642   0.552169   0.036524   0.031152   0.199802   0.244682
     77      -0.000382  -0.390746   0.036253   0.100026  -0.127425  -0.159641
     78      -0.015887   0.013103   0.175478  -0.014248   0.001868  -0.002271
     79      -0.008962   0.034089  -0.062701  -0.206016   0.243546   0.097263
     80      -0.020372  -0.019977  -0.090634  -0.270286  -0.169961  -0.072308
     81      -0.031439   0.005227  -0.220778  -0.087679   0.009775   0.000260
     82      -0.012977   0.144093  -0.084754   0.083052   0.221234  -0.078141
     83      -0.038245  -0.092058  -0.163590   0.130843  -0.143694   0.057694
     84       0.013079  -0.000750   0.011065   0.038041   0.014614  -0.004460
     85       0.031607   0.042337   0.108202  -0.010890   0.229454  -0.109240
     86       0.043974  -0.033706   0.159621  -0.012523  -0.148630   0.068365
     87       0.086566  -0.007315   0.358408  -0.064219   0.071762  -0.047861
     88      -0.006850  -0.027889   0.005520  -0.023649  -0.167145   0.075785
     89      -0.062927  -0.006587  -0.250973   0.050020  -0.094648   0.052017
     90      -0.070810  -0.051153  -0.252364   0.013576  -0.267163   0.124481
     91      -0.000466   0.024251  -0.013058   0.015551   0.121251  -0.053546
     92       0.038335  -0.010322   0.165882  -0.030252  -0.029457   0.008522
     93      -0.062239   0.063358  -0.235188   0.008863   0.288476  -0.130476
     94       0.039300   0.008681   0.165350  -0.036086   0.049399  -0.028188
     95       0.012015  -0.017958   0.048108   0.002495  -0.093658   0.042874
     96       0.085530  -0.012570   0.348370  -0.063761  -0.095185   0.044946
     97      -0.057917   0.007735  -0.244205   0.058168   0.034468  -0.011465
     98      -0.026717   0.033297  -0.088194  -0.005081   0.186534  -0.091903
     99      -0.031458   0.007760  -0.163941   0.248481   0.016460   0.007755
    100       0.032084   0.222360   0.084113   0.057267   0.127990   0.084137
    101       0.020576  -0.161303   0.106587   0.118448  -0.079124  -0.050441
    102       0.168309  -0.014702  -0.027657  -0.072086  -0.003440  -0.009651
    103       0.080066   0.035868  -0.023298  -0.094584  -0.110280  -0.236295
    104       0.101527  -0.040501  -0.026973  -0.126414   0.088030   0.190158
                 36         37         38         39         40         41    
      0      -0.001993  -0.001026   0.000684  -0.002961   0.049499   0.001530
      1      -0.060309  -0.001108  -0.011099  -0.085807   0.013239   0.000328
      2       0.048683  -0.000773   0.009626   0.069649   0.019579   0.000699
      3      -0.001638  -0.001370   0.000761   0.003679   0.050559   0.001335
      4      -0.036596   0.001064   0.011022   0.102489  -0.024464  -0.000989
      5       0.029827   0.001000  -0.009557  -0.082450  -0.028481  -0.000430
      6      -0.002439  -0.004105   0.001148  -0.001202   0.088261   0.002440
      7      -0.048191   0.006891  -0.005616  -0.013009  -0.146365  -0.004191
      8       0.040461   0.008534  -0.000431   0.011639  -0.177140  -0.004889
      9       0.003185  -0.001675   0.001226   0.007043   0.001679  -0.000015
     10       0.087129   0.002943   0.022033   0.180838  -0.054117  -0.001355
     11      -0.070165   0.002259  -0.019908  -0.145908  -0.068232  -0.002069
     12      -0.001604   0.004688  -0.002339  -0.000746  -0.144896  -0.004061
     13      -0.059964  -0.003176  -0.012851  -0.027420   0.019302  -0.000789
     14       0.047376  -0.002426   0.010511   0.022858   0.015138   0.001481
     15       0.005057   0.005546  -0.000450  -0.000705  -0.125594  -0.003473
     16       0.123382   0.001193   0.030444  -0.026045  -0.001525   0.005167
     17      -0.099989  -0.001643  -0.025755   0.021119  -0.004168  -0.004213
     18      -0.000971   0.006295  -0.004791   0.000640  -0.067354  -0.002402
     19      -0.037210  -0.001407  -0.101533   0.005746   0.014816  -0.006559
     20       0.025622  -0.000042   0.068631  -0.003781   0.013555   0.005341
     21      -0.002000  -0.003803   0.004719   0.000118   0.017600   0.001351
     22      -0.016849   0.003700   0.096096  -0.001757  -0.018028   0.004690
     23       0.012628   0.004805  -0.064781   0.000871  -0.024983  -0.002184
     24      -0.002744  -0.004225  -0.001367   0.000408   0.042832   0.001458
     25      -0.020340   0.011392  -0.042614   0.006967  -0.117966   0.001069
     26       0.010447   0.018215   0.028402  -0.004296  -0.177637  -0.005449
     27      -0.000126   0.006684   0.007742  -0.001298   0.003613   0.000489
     28       0.005382   0.002549   0.223071  -0.026942  -0.043421   0.007299
     29      -0.005767   0.001171  -0.148914   0.018372  -0.053035  -0.006560
     30      -0.000324  -0.002227  -0.004187  -0.000006   0.030274  -0.001770
     31      -0.013255   0.002656  -0.039023   0.005614   0.025663  -0.007996
     32       0.009808   0.005112   0.025972  -0.003828   0.036165   0.007254
     33       0.002009  -0.024861  -0.000674  -0.000040   0.048068   0.003220
     34       0.035815  -0.001839  -0.021853   0.001619   0.003412   0.040593
     35      -0.022861  -0.006394   0.014721  -0.001238   0.015061  -0.025263
     36       0.000553  -0.031866   0.000686   0.000014   0.027930   0.003888
     37       0.001532  -0.019270  -0.000347   0.000363  -0.040227   0.074083
     38      -0.001689  -0.027486   0.001574   0.000093  -0.050399  -0.046564
     39       0.001968   0.002871  -0.004602   0.001084  -0.050943   0.121225
     40      -0.004968  -0.007039   0.002550  -0.000339  -0.021962  -0.082278
     41      -0.001731  -0.027284  -0.000401   0.000246   0.020550   0.016019
     42      -0.003085  -0.001425   0.004892  -0.000809  -0.032182  -0.128304
     43       0.000721  -0.023459   0.001776  -0.000388   0.035714  -0.041832
     44       0.005422  -0.019222  -0.001310   0.000345  -0.021742   0.063914
     45       0.000429  -0.015580   0.003789  -0.000746   0.105715   0.001519
     46      -0.028427   0.012193   0.073435  -0.008094   0.045531  -0.011710
     47       0.021452   0.016916  -0.048337   0.004864   0.075131   0.009475
     48       0.002868   0.013234  -0.008857   0.000952   0.010797   0.001246
     49       0.039885  -0.002205  -0.224063   0.024317   0.037607  -0.001599
     50      -0.025651  -0.000769   0.149481  -0.016484   0.048079   0.000300
     51       0.000566   0.025663   0.001818   0.000072  -0.060570   0.001182
     52      -0.009507  -0.011648   0.005227  -0.000424   0.049623   0.001705
     53       0.009163  -0.014894  -0.004876   0.000208   0.071218  -0.001629
     54      -0.002890   0.003364  -0.002775   0.003330  -0.144174  -0.004260
     55      -0.064154  -0.000919  -0.005045   0.072830   0.004639  -0.001936
     56       0.050597   0.000226   0.003878  -0.058362  -0.002566   0.001513
     57       0.000772  -0.002050  -0.000559  -0.008680   0.009725   0.000257
     58       0.030756  -0.002132  -0.020946  -0.218975   0.058563   0.002541
     59      -0.024904  -0.002365   0.019541   0.175938   0.074503   0.001306
     60      -0.001278  -0.005452   0.002951   0.000529   0.129933   0.003655
     61      -0.029576  -0.005997   0.006603   0.028091   0.136648   0.003790
     62       0.023061  -0.007731   0.000232  -0.024503   0.175837   0.004890
     63       0.017245  -0.004572   0.003095  -0.000306   0.131645   0.003913
     64       0.424626   0.004874   0.002400  -0.010382  -0.092750  -0.001109
     65      -0.343716   0.004072  -0.006086   0.009501  -0.111880  -0.004276
     66       0.016904  -0.006730   0.001671  -0.006746   0.159233   0.004417
     67       0.446716  -0.002669  -0.004320  -0.139297   0.064886   0.003840
     68      -0.362545  -0.005662   0.005639   0.111663   0.090727   0.000915
     69       0.006803  -0.010754   0.001628  -0.021291   0.255528   0.007334
     70       0.199630   0.007320  -0.059519  -0.518804  -0.169012  -0.003613
     71      -0.159920   0.009427   0.042708   0.420854  -0.190577  -0.006265
     72      -0.003058   0.013223  -0.011725   0.003233  -0.276802  -0.007315
     73      -0.096160  -0.004884   0.013557  -0.031647   0.053131  -0.000481
     74       0.077967  -0.006001  -0.005232   0.023838   0.063634   0.003123
     75       0.003554   0.004849   0.001329  -0.000328  -0.057699  -0.000042
     76       0.188610   0.002630   0.011879  -0.031175   0.001477  -0.011026
     77      -0.122601  -0.001883  -0.008351   0.019905   0.023754   0.008890
     78       0.000103  -0.002978  -0.015678   0.001206  -0.027609  -0.002318
     79       0.123458   0.012402  -0.423975   0.013652  -0.140762  -0.037197
     80      -0.087812   0.019142   0.285425  -0.008510  -0.207627   0.019009
     81       0.001440   0.035902  -0.007021  -0.000414   0.104276  -0.009782
     82      -0.016327   0.029581  -0.052623   0.005704   0.063866  -0.057747
     83       0.013992   0.029607   0.032512  -0.004331   0.093695   0.034892
     84      -0.000121  -0.101392   0.001497   0.000102   0.028324   0.016732
     85      -0.033131  -0.010847  -0.025435   0.006150  -0.067902   0.507649
     86       0.020439  -0.036407   0.017702  -0.003594  -0.035401  -0.323450
     87      -0.019633   0.185652  -0.018140   0.004082  -0.105968   0.355798
     88       0.019798   0.459834   0.002814  -0.004378   0.147887  -0.302574
     89       0.018170  -0.119103   0.010066  -0.002527   0.081978  -0.190662
     90       0.035693   0.033885   0.009597  -0.003380   0.028756  -0.161845
     91      -0.013495  -0.251722   0.000541   0.001825  -0.107210   0.034706
     92      -0.000493   0.401870  -0.002871  -0.001778   0.141208  -0.077403
     93      -0.037179   0.067087  -0.012336   0.002748   0.018595   0.163209
     94      -0.011685   0.469977  -0.010013  -0.000364   0.163912   0.069574
     95       0.012341  -0.061169   0.002581  -0.000307  -0.038559   0.005004
     96       0.013702   0.149457   0.015217  -0.003746  -0.063963  -0.372075
     97      -0.000950  -0.305732  -0.000945   0.001412   0.008725   0.069859
     98      -0.030444   0.378713  -0.017918   0.002422   0.124725   0.335911
     99       0.006464   0.040869   0.035299  -0.002129  -0.112116   0.003726
    100       0.068313  -0.003060   0.608449  -0.061056   0.033318   0.007535
    101      -0.040872  -0.014209  -0.399195   0.040412   0.066765  -0.004236
    102       0.010689  -0.011949   0.008695   0.015273   0.330899   0.009165
    103       0.277013  -0.004570   0.056212   0.448920   0.129903   0.002966
    104      -0.224978  -0.008592  -0.040095  -0.364774   0.171403   0.005294
                 42         43         44         45         46         47    
      0       0.001167   0.028506  -0.002977   0.230414  -0.001217   0.070169
      1      -0.001146   0.002888  -0.046178   0.061884  -0.000088   0.014816
      2       0.001980   0.005010   0.036753   0.088495  -0.000332   0.021770
      3      -0.003137   0.036238   0.001842  -0.210456   0.000130  -0.048242
      4      -0.000960  -0.014007   0.030411   0.097099  -0.000077   0.024922
      5       0.003529  -0.015238  -0.025370   0.109495  -0.000302   0.029725
      6      -0.001779   0.037185   0.004057  -0.040710  -0.000223  -0.004932
      7       0.000579  -0.057600   0.095816  -0.122665   0.001066  -0.044872
      8       0.001403  -0.069694  -0.076402  -0.155167   0.001282  -0.053200
      9       0.000668  -0.023845  -0.003882   0.080039   0.000542   0.005290
     10       0.003492  -0.028369  -0.090467  -0.023374   0.000399  -0.017277
     11      -0.002438  -0.036309   0.073447  -0.023684   0.001099  -0.027400
     12       0.003504  -0.089548   0.000198   0.201971   0.000873   0.024814
     13      -0.013170  -0.015831   0.018832   0.052103   0.001386  -0.018624
     14       0.012672  -0.022233  -0.016069   0.076138   0.000424  -0.014165
     15       0.004220  -0.036941   0.000627  -0.044894  -0.000530   0.028820
     16       0.062582   0.000876   0.001646   0.012109  -0.003188   0.011243
     17      -0.049699  -0.008458  -0.001403   0.000051   0.002708  -0.019551
     18      -0.003275   0.029618   0.000493  -0.061779  -0.001659   0.055869
     19      -0.080872   0.010148   0.000668  -0.007191   0.004022  -0.039106
     20       0.053564   0.012854  -0.000582   0.005676  -0.003165   0.009938
     21       0.001475   0.067244  -0.000358   0.052580  -0.002029  -0.066732
     22       0.081262   0.041020  -0.001315   0.051774  -0.004110  -0.049241
     23      -0.056096   0.060647   0.000486   0.079893   0.000848  -0.082111
     24       0.002671   0.032184  -0.000135   0.022336  -0.000419  -0.018483
     25       0.107405   0.061891   0.000873  -0.021725  -0.007650   0.000802
     26      -0.072494   0.080890   0.000066  -0.023839   0.000739   0.006319
     27      -0.002519  -0.062497   0.000276  -0.024662   0.003951   0.047584
     28      -0.103976   0.010165   0.001200  -0.000808   0.015379   0.005000
     29       0.069527   0.032530  -0.000649  -0.016540  -0.012287  -0.011785
     30       0.006093  -0.196750   0.000419  -0.081944   0.005275   0.134120
     31       0.026318  -0.018480  -0.000278   0.011177  -0.023071  -0.035478
     32      -0.016667  -0.042185  -0.000068   0.013597   0.015598  -0.044439
     33       0.001533  -0.084272  -0.000210   0.019207   0.006559  -0.050558
     34      -0.002438   0.002436  -0.000444   0.009003   0.118124  -0.025670
     35       0.001670  -0.008420   0.000233   0.013166  -0.078187  -0.028332
     36       0.000524  -0.065014  -0.000420   0.075902  -0.014185  -0.191735
     37      -0.011311   0.041544   0.000021  -0.023153  -0.237985   0.052153
     38       0.005047   0.075278   0.000245  -0.020275   0.159449   0.061465
     39      -0.008635   0.055485   0.000103  -0.022188  -0.089850   0.053602
     40       0.007262   0.058110   0.000307  -0.037216   0.138794   0.106331
     41       0.002019  -0.036750  -0.000225   0.045306   0.050276  -0.110269
     42       0.006723   0.059215   0.000207  -0.015160   0.093315   0.042930
     43       0.002763  -0.058036  -0.000321   0.058047  -0.002228  -0.147389
     44      -0.008603   0.030316   0.000012  -0.022712  -0.142289   0.058324
     45       0.000366  -0.069226  -0.000257   0.026996   0.000951  -0.011997
     46      -0.016089   0.009852   0.001290   0.014795  -0.031791   0.037083
     47       0.009685   0.020085  -0.001114   0.012115   0.023909   0.024975
     48      -0.000066   0.097978  -0.000243   0.007147  -0.001416  -0.002204
     49       0.049371  -0.026710  -0.004156  -0.032456  -0.002580   0.001205
     50      -0.031622  -0.059631   0.002828  -0.007753   0.004440   0.087767
     51      -0.005481   0.237451   0.000249   0.020616  -0.005245  -0.022716
     52      -0.002000  -0.102876   0.005502  -0.005953  -0.001555   0.135415
     53       0.004735  -0.115795  -0.003593  -0.072877   0.005170   0.052543
     54       0.001206  -0.090559  -0.000418  -0.165079   0.001971  -0.073635
     55      -0.019828   0.010017  -0.028307   0.062164  -0.000279   0.046114
     56       0.018799   0.010576   0.022632   0.072925  -0.001962   0.060762
     57       0.000427  -0.017549   0.003996  -0.067590   0.000861  -0.034058
     58       0.005078   0.037296   0.098776  -0.024541  -0.000708   0.011132
     59      -0.007267   0.044055  -0.079435  -0.035582  -0.000754   0.015748
     60      -0.001587   0.055702  -0.003401  -0.006137  -0.000604   0.009319
     61      -0.001934   0.061340  -0.085724  -0.135333  -0.000483  -0.021920
     62      -0.004718   0.078656   0.070283  -0.166822  -0.000265  -0.030231
     63       0.001026   0.062354   0.013128   0.262259  -0.001740   0.085900
     64       0.013529  -0.039107   0.359873   0.018601   0.000148  -0.009366
     65      -0.008230  -0.047812  -0.291820   0.032333   0.000773  -0.001751
     66      -0.004381   0.079259  -0.009372  -0.261591  -0.000194  -0.054919
     67       0.016573   0.021496  -0.254823   0.050842  -0.001381   0.025460
     68      -0.014203   0.029716   0.205718   0.052470   0.000327   0.015221
     69      -0.001555   0.123470  -0.018572   0.185519  -0.002613   0.090607
     70       0.003009  -0.068141  -0.457111  -0.144056   0.001376  -0.048566
     71      -0.000357  -0.077658   0.371032  -0.163274   0.001406  -0.062577
     72       0.002384  -0.132044  -0.002154   0.356386   0.001406  -0.012492
     73      -0.021162   0.001087   0.019381   0.004193   0.001845  -0.016201
     74       0.020111  -0.012188  -0.015168   0.031138  -0.000215   0.004665
     75      -0.028443   0.144144  -0.000705   0.060905  -0.002233  -0.115492
     76      -0.513154  -0.021304   0.000189   0.059606   0.031733  -0.018032
     77       0.347838   0.032663  -0.000133   0.068535  -0.021836  -0.062187
     78      -0.030515   0.143196   0.000239  -0.067305  -0.004825   0.045100
     79      -0.613611   0.060979  -0.001393  -0.027490   0.011318   0.006829
     80       0.410270   0.147167   0.001835  -0.062931  -0.015021   0.029561
     81       0.008777  -0.321578   0.000583  -0.133043  -0.000570   0.240058
     82       0.024477  -0.070984  -0.000113  -0.010712  -0.084588   0.010427
     83      -0.012420  -0.141432  -0.000028  -0.025303   0.053396   0.036213
     84       0.002318  -0.134816  -0.000483   0.108777   0.001337  -0.310835
     85      -0.003446   0.039280   0.000052  -0.018210   0.285795   0.051125
     86      -0.000026   0.078295   0.000226  -0.022300  -0.175304   0.058141
     87      -0.006269   0.176345   0.000405  -0.048817   0.249086   0.155611
     88       0.004075  -0.087968  -0.000025  -0.033336  -0.157726   0.065790
     89      -0.000304  -0.147861  -0.000507   0.068133  -0.249412  -0.198977
     90      -0.014054  -0.046983   0.000170  -0.096747  -0.380533   0.198144
     91       0.006689   0.135217   0.000463  -0.052786   0.230134   0.160612
     92       0.005547  -0.131607  -0.000529   0.104077   0.012845  -0.266196
     93       0.017941  -0.046400   0.000648  -0.070327   0.420640   0.163308
     94       0.003880  -0.180983  -0.000604   0.119406   0.027849  -0.312478
     95      -0.010827   0.057176  -0.000050  -0.017025  -0.205972   0.048311
     96      -0.001092   0.190141   0.000187  -0.051466  -0.251651   0.147710
     97       0.005326  -0.104486  -0.000345   0.082675   0.164266  -0.216357
     98       0.003356  -0.154959   0.000109   0.001814   0.229203  -0.017228
     99      -0.008746   0.460556  -0.002840   0.117923  -0.009054  -0.133252
    100       0.027225  -0.017281  -0.027203  -0.165485   0.031478  -0.285594
    101      -0.016738  -0.072815   0.017145   0.079980  -0.018867   0.290835
    102      -0.008326   0.178463   0.016935  -0.286317  -0.001876  -0.015762
    103      -0.009190   0.054852   0.400451  -0.110203   0.000588  -0.026993
    104       0.001679   0.077004  -0.323210  -0.155405  -0.001096  -0.021328
                 48         49         50         51         52         53    
      0       0.030987  -0.050143  -0.001778  -0.037084   0.000480   0.002235
      1       0.007548   0.000282  -0.044511  -0.026540   0.000500   0.082874
      2       0.010512  -0.002461   0.035790  -0.035248   0.001025  -0.068099
      3      -0.026342   0.009628  -0.002847  -0.020567   0.001234  -0.003737
      4       0.014125  -0.015211  -0.065720   0.026138   0.000267  -0.073002
      5       0.013288  -0.018975   0.053289   0.031370  -0.002374   0.060298
      6      -0.004360  -0.007573   0.003235   0.013595  -0.000567   0.002235
      7      -0.014546   0.039791   0.079046   0.017132  -0.001380   0.040264
      8      -0.023652   0.048950  -0.063747   0.022314   0.001048  -0.031988
      9       0.008356   0.040698  -0.000593  -0.037458   0.000680   0.000063
     10      -0.011910   0.045862  -0.017383  -0.040737   0.001331  -0.001271
     11      -0.000495   0.060203   0.014102  -0.053199   0.001173   0.001039
     12       0.022898   0.045401   0.000507  -0.012759  -0.000115   0.000057
     13       0.007954   0.100841   0.007090  -0.123817   0.001125   0.001871
     14      -0.007530   0.125894  -0.005587  -0.153859   0.006097  -0.000950
     15       0.003088  -0.117913  -0.000214   0.123123  -0.002744  -0.000311
     16      -0.041777   0.012057  -0.004667  -0.004815   0.014793   0.000406
     17       0.030147   0.014862   0.003791   0.002785  -0.012059  -0.000371
     18       0.012532  -0.184295  -0.000184   0.049510  -0.002353  -0.000282
     19       0.070812   0.005072  -0.000100  -0.029816  -0.025058  -0.000134
     20      -0.051763  -0.005669   0.000104  -0.038527   0.018035   0.000228
     21      -0.015129   0.092874   0.000255   0.061066   0.003555  -0.000064
     22      -0.016062   0.095149   0.001830   0.102405   0.105655   0.000626
     23      -0.015343   0.149028  -0.000903   0.142624  -0.074176  -0.000742
     24      -0.003244   0.050588  -0.000104  -0.037332  -0.002798   0.000083
     25       0.002453  -0.088119  -0.002239  -0.012967  -0.094350  -0.000614
     26      -0.003641  -0.132712   0.001254  -0.009149   0.063530   0.000361
     27       0.009080   0.015367   0.000028   0.028346  -0.000043  -0.000122
     28      -0.022720  -0.045265   0.000505  -0.025070   0.016400   0.000162
     29       0.013859  -0.064375  -0.000415  -0.038267  -0.009320   0.000062
     30       0.031673  -0.029638  -0.000051   0.019960  -0.000859  -0.000175
     31      -0.005622  -0.034304  -0.000120  -0.047684  -0.004772   0.000225
     32      -0.008614  -0.054535   0.000065  -0.069201   0.005840   0.000424
     33      -0.007495  -0.020967   0.000011  -0.026322   0.001029   0.000242
     34       0.000995  -0.018443   0.000052  -0.003047   0.002819   0.000040
     35      -0.010077  -0.021871  -0.000097  -0.006794  -0.001756   0.000025
     36      -0.036416  -0.112547  -0.000103   0.019714  -0.000607  -0.000121
     37       0.016795   0.032958  -0.000024  -0.006340  -0.000031   0.000066
     38       0.006310   0.031537   0.000029  -0.007841   0.000397   0.000070
     39       0.012216   0.027858  -0.000009   0.006051  -0.000374  -0.000069
     40       0.015710   0.073790   0.000086  -0.014124   0.000434   0.000128
     41      -0.023138  -0.058203  -0.000025   0.022898  -0.000646  -0.000173
     42       0.004444   0.018591   0.000009   0.008552  -0.000242  -0.000093
     43      -0.028254  -0.084659  -0.000064   0.026278  -0.000816  -0.000198
     44       0.015681   0.051037   0.000038  -0.003596   0.000214   0.000044
     45      -0.001765   0.116211   0.000143   0.003082   0.000245   0.000209
     46      -0.024548   0.116917  -0.000002   0.061762  -0.004320  -0.000286
     47       0.024912   0.181968   0.000276   0.093876  -0.000294  -0.000382
     48      -0.000262   0.023475   0.000045  -0.030869   0.000942   0.000075
     49       0.099782   0.039287   0.000235   0.025935   0.004855  -0.000067
     50      -0.046242   0.055053  -0.000101   0.033888  -0.004580  -0.000144
     51      -0.018469  -0.058236  -0.000191  -0.079971   0.001256   0.000145
     52      -0.142265  -0.083413  -0.000951  -0.073127  -0.001290   0.000115
     53       0.130996  -0.118552   0.000366  -0.109126   0.002317   0.000126
     54      -0.026895   0.095404   0.000369   0.016724   0.000548  -0.000133
     55       0.022958  -0.114053   0.010598   0.128820  -0.006561  -0.003481
     56       0.010773  -0.138173  -0.008503   0.159870  -0.001174   0.002139
     57      -0.012499   0.058995  -0.001065  -0.018617   0.000978   0.000338
     58       0.005358  -0.055630  -0.029610   0.041857   0.000249   0.005590
     59      -0.002051  -0.066574   0.023736   0.051317  -0.002927  -0.004379
     60       0.000501  -0.023914   0.003134   0.015099  -0.000465  -0.001544
     61      -0.019565  -0.011948   0.082779  -0.004088  -0.000212  -0.055492
     62      -0.016221  -0.014891  -0.067061  -0.003696   0.001322   0.044045
     63       0.036466  -0.073446   0.010027  -0.021081   0.000047  -0.020196
     64       0.004656   0.030113   0.245371  -0.057659   0.003364  -0.483072
     65      -0.002051   0.034814  -0.199609  -0.067980   0.000560   0.389425
     66      -0.032909   0.000631   0.014569  -0.005055   0.000309   0.016977
     67      -0.007327  -0.024708   0.376356   0.044866  -0.009367   0.431600
     68       0.019629  -0.025279  -0.304702   0.054395   0.004062  -0.346500
     69       0.028981  -0.146026  -0.016152   0.169704  -0.005861  -0.005333
     70      -0.026038   0.053521  -0.431259   0.006761   0.007930  -0.247004
     71      -0.018329   0.057790   0.349024   0.015182  -0.005902   0.200075
     72       0.020818   0.193313   0.000301  -0.141975   0.001988  -0.000006
     73       0.021172   0.061733   0.006063  -0.089593   0.001227   0.001606
     74      -0.016567   0.079971  -0.004623  -0.119767   0.005216  -0.000675
     75      -0.028911   0.130139   0.000100  -0.023645  -0.032007  -0.000233
     76      -0.037468   0.082490  -0.006540   0.109465  -0.620680  -0.005289
     77       0.009586   0.127020   0.004547   0.232807   0.418134   0.003122
     78       0.011380  -0.283071  -0.000252  -0.445252   0.033331   0.001085
     79       0.037990  -0.171153   0.010177  -0.054915   0.530972   0.003701
     80      -0.022112  -0.247487  -0.007427  -0.179789  -0.351715  -0.002137
     81       0.055590  -0.002063  -0.000011   0.029519  -0.001448  -0.000249
     82       0.004912  -0.020677  -0.000092  -0.048129  -0.005006   0.000220
     83       0.009452  -0.035428   0.000093  -0.066597   0.005564   0.000393
     84      -0.059549  -0.280112  -0.000359  -0.000074  -0.000358  -0.000040
     85       0.007545   0.022682   0.000114  -0.001809   0.003526   0.000054
     86       0.011376   0.032057  -0.000069  -0.010831  -0.001887   0.000075
     87       0.019461   0.143574   0.000280   0.040710  -0.000273  -0.000280
     88       0.020300   0.024001   0.000006  -0.073005   0.001973   0.000583
     89      -0.029122  -0.157888  -0.000265  -0.008815  -0.000624   0.000023
     90       0.053745   0.071895   0.000069  -0.089641   0.003812   0.000701
     91       0.022358   0.128965   0.000173  -0.003449   0.000270   0.000077
     92      -0.052184  -0.172883  -0.000213   0.042458  -0.002050  -0.000389
     93       0.020225   0.039072   0.000086  -0.089019   0.002060   0.000681
     94      -0.060791  -0.215972  -0.000248   0.045295  -0.001543  -0.000433
     95       0.015216   0.057167   0.000037   0.012257  -0.000141  -0.000075
     96       0.033472   0.153494   0.000187   0.039664  -0.001183  -0.000258
     97      -0.045821  -0.168454  -0.000192   0.023940  -0.000787  -0.000239
     98      -0.008579  -0.053589  -0.000049  -0.065019   0.002163   0.000486
     99       0.017964  -0.135807  -0.000175  -0.481773   0.008554   0.001045
    100       0.804539  -0.068320   0.005996  -0.138397  -0.002809  -0.000061
    101      -0.494244  -0.166219  -0.004365  -0.270065   0.006979   0.000704
    102      -0.024253  -0.141080  -0.017716   0.203702  -0.006009   0.017740
    103       0.000521  -0.002262  -0.441234  -0.017491   0.004838   0.327541
    104      -0.029271  -0.014732   0.356900  -0.015564  -0.002054  -0.266427
                 54         55         56         57         58         59    
      0       0.049129   0.123145   0.000242   0.000035  -0.000009  -0.016700
      1       0.027641   0.065847   0.000519   0.000423  -0.000061  -0.012512
      2       0.035281   0.085439   0.000694   0.000567  -0.000070  -0.016424
      3       0.038958   0.105200   0.000940   0.000519  -0.000063   0.004866
      4      -0.033791  -0.086439  -0.000967  -0.000675   0.000083  -0.013383
      5      -0.038518  -0.099742  -0.001145  -0.000861   0.000118  -0.016232
      6      -0.027042  -0.079782  -0.000294   0.000140  -0.000040   0.008138
      7      -0.017944  -0.039715   0.000181   0.000143   0.000009   0.021650
      8      -0.024304  -0.054163   0.000212   0.000104   0.000029   0.027042
      9       0.003768  -0.011260  -0.000711  -0.000779   0.000150  -0.022647
     10       0.011436   0.005196  -0.000127  -0.000040   0.000004  -0.018259
     11       0.014577   0.005971  -0.000216  -0.000161   0.000028  -0.023078
     12      -0.005150  -0.002546  -0.000127  -0.000790   0.000200   0.043690
     13       0.027658  -0.027191  -0.000494   0.000626  -0.000248  -0.106871
     14       0.033850  -0.033695  -0.000643   0.000611  -0.000284  -0.128672
     15      -0.011075   0.033569   0.001644   0.002649  -0.000351  -0.057738
     16      -0.003804  -0.002426  -0.000353  -0.000899   0.000163   0.066890
     17      -0.005916  -0.000513  -0.000122  -0.000792   0.000222   0.078740
     18       0.018999   0.026890  -0.001707  -0.001079  -0.000025  -0.192272
     19      -0.001393  -0.007106  -0.001854  -0.001383   0.000186   0.033953
     20      -0.000988  -0.009126  -0.002853  -0.002028   0.000313   0.041039
     21      -0.026550   0.014572   0.004529   0.006325  -0.002000  -0.034693
     22      -0.033986   0.021687   0.006883  -0.001747  -0.000177  -0.027578
     23      -0.053352   0.034396   0.010536  -0.002211  -0.000685  -0.044342
     24       0.009052  -0.014456   0.001954   0.000457  -0.000013   0.070206
     25       0.019372  -0.000812  -0.004888   0.001271  -0.000670  -0.027396
     26       0.030079  -0.003000  -0.007173   0.002217  -0.000233  -0.036170
     27       0.061500  -0.009748  -0.008233   0.001664   0.002430   0.003755
     28      -0.024653   0.002717   0.001508  -0.002606   0.000738   0.001473
     29      -0.033321   0.003506   0.001848  -0.003738  -0.000267   0.002260
     30       0.077279  -0.009840  -0.006831  -0.004456   0.002793  -0.009875
     31      -0.137604   0.023676  -0.005626  -0.064028   0.008507  -0.002277
     32      -0.201013   0.034775  -0.008917  -0.095177   0.016312  -0.004072
     33      -0.127376   0.022966   0.026813   0.008987  -0.001297   0.010399
     34       0.006745  -0.002351   0.012909   0.042782   0.004018  -0.000241
     35       0.001749  -0.002096   0.021166   0.058167  -0.016417   0.000921
     36       0.051380  -0.006197  -0.042043   0.051375  -0.011074  -0.006234
     37      -0.021072   0.003107   0.035548   0.041533  -0.024841  -0.003942
     38      -0.025985   0.003888   0.052996   0.070087   0.001670  -0.006530
     39       0.047389  -0.010262   0.066646  -0.042576   0.110877   0.001651
     40      -0.060055   0.008949   0.042168  -0.001618   0.022448   0.010339
     41       0.065426  -0.008807  -0.106150  -0.030355  -0.054243  -0.004759
     42       0.057507  -0.011874   0.066122  -0.082235  -0.084259   0.001709
     43       0.081010  -0.011025  -0.118268  -0.004049   0.064776  -0.008969
     44      -0.027651   0.004412  -0.003908  -0.014137   0.003070   0.007629
     45      -0.133074   0.023224   0.010454  -0.012712   0.001330   0.040146
     46       0.115167  -0.020327  -0.007971   0.017332  -0.002726   0.028520
     47       0.164129  -0.028849  -0.011221   0.025598  -0.002140   0.044971
     48      -0.005359  -0.004944   0.000372  -0.008921   0.001507  -0.013129
     49       0.022126   0.000434   0.001929  -0.002536   0.000293  -0.022125
     50       0.033230  -0.000035   0.002570  -0.004621   0.001080  -0.033192
     51       0.021903  -0.016102  -0.001449  -0.000035  -0.000720  -0.025370
     52       0.038533  -0.019112  -0.004850   0.004106   0.000123   0.008263
     53       0.058774  -0.028683  -0.007027   0.005981   0.000131   0.008904
     54      -0.011304   0.003965   0.001030   0.000038   0.000069   0.053661
     55      -0.025453   0.028993   0.001261   0.000544   0.000053   0.085361
     56      -0.032010   0.036042   0.001507   0.000674   0.000056   0.108629
     57      -0.002159  -0.011306   0.000236  -0.000061   0.000080   0.038259
     58      -0.009778  -0.003608  -0.000239  -0.000134  -0.000004  -0.018092
     59      -0.012305  -0.005246  -0.000174  -0.000030  -0.000011  -0.020877
     60      -0.022244  -0.064419  -0.000257   0.000098  -0.000050  -0.006906
     61       0.018609   0.055366   0.000485   0.000129   0.000004   0.025017
     62       0.022626   0.066601   0.000529   0.000165   0.000009   0.030751
     63       0.028857   0.072009  -0.000612  -0.001000   0.000181   0.037316
     64       0.061368   0.156613   0.001988   0.002043  -0.000352  -0.090445
     65       0.084001   0.206691   0.002216   0.002333  -0.000396  -0.109513
     66       0.009792   0.021614  -0.000268  -0.000670   0.000106  -0.013089
     67      -0.062460  -0.172815  -0.002207  -0.001839   0.000247  -0.028983
     68      -0.083747  -0.222352  -0.002629  -0.002271   0.000319  -0.036719
     69      -0.211166  -0.572846  -0.004091  -0.000780  -0.000221   0.010789
     70      -0.008255  -0.010353   0.000457   0.000242   0.000020   0.021569
     71      -0.015836  -0.034561   0.000400   0.000149   0.000040   0.028139
     72      -0.005818  -0.015912  -0.002439  -0.005974   0.001101   0.439451
     73       0.028705  -0.024104   0.000202   0.002007  -0.000528  -0.234182
     74       0.036962  -0.032246   0.000001   0.002576  -0.000629  -0.283042
     75       0.012602  -0.024285  -0.008681   0.016169  -0.003344   0.063912
     76      -0.058785   0.046865   0.013604  -0.006449   0.000367  -0.083585
     77      -0.078916   0.059399   0.019395  -0.008746   0.000130  -0.115132
     78       0.125896  -0.116423  -0.015314   0.025585  -0.007149   0.382538
     79       0.044520  -0.023191  -0.008671   0.006425  -0.000868   0.031728
     80       0.069876  -0.036861  -0.013697   0.011282  -0.003845   0.070389
     81       0.073853  -0.004094  -0.070644  -0.163398   0.020280  -0.040646
     82      -0.155284   0.029080  -0.037291  -0.140101   0.007014  -0.017099
     83      -0.219989   0.042195  -0.059964  -0.236372   0.040398  -0.029087
     84       0.086208  -0.013811   0.106981   0.526673  -0.099704  -0.055304
     85      -0.005460   0.000533   0.041851  -0.005556  -0.161507  -0.002354
     86      -0.031427   0.004681   0.054301   0.119796   0.085673  -0.010147
     87       0.036760   0.001760  -0.493892  -0.144026  -0.248439   0.000415
     88      -0.264307   0.044954   0.035987   0.247968  -0.154577   0.003615
     89       0.060772  -0.015932   0.332108   0.072183   0.211418  -0.005356
     90      -0.357390   0.066927  -0.202222   0.309827  -0.551297  -0.024606
     91      -0.065532   0.012046  -0.075189  -0.042345  -0.046500   0.015687
     92       0.238280  -0.045710   0.222741  -0.099052   0.351719  -0.001684
     93      -0.359297   0.067568  -0.216570   0.488396   0.395943  -0.029610
     94       0.268318  -0.051031   0.253862  -0.208308  -0.297377  -0.004665
     95       0.033094  -0.007017   0.026951  -0.103597  -0.064679   0.013846
     96       0.032931   0.002047  -0.491152  -0.066764   0.256020   0.001072
     97       0.178262  -0.035669   0.312663  -0.119611  -0.223022  -0.006247
     98      -0.201657   0.032543   0.157655   0.242316  -0.034693  -0.000488
     99       0.106232  -0.137391  -0.027662   0.021855  -0.004653   0.482322
    100       0.055022  -0.040229  -0.009107   0.008028  -0.000013   0.106659
    101       0.092912  -0.076799  -0.017184   0.014398  -0.001630   0.198813
    102      -0.217262  -0.577532  -0.004281  -0.000987  -0.000291  -0.207502
    103       0.038673   0.106442   0.000630   0.000022   0.000048   0.042741
    104       0.033114   0.096778   0.000900   0.000355   0.000005   0.041610
                 60         61         62         63         64         65    
      0      -0.000021  -0.020093   0.000869   0.006165  -0.000017  -0.004511
      1       0.000117   0.036993   0.000889  -0.033147   0.000015   0.001006
      2       0.000141   0.045085   0.001161  -0.040740   0.000015   0.001015
      3       0.000077   0.031146  -0.000712   0.018277   0.000005   0.006595
      4       0.000066   0.025615  -0.000421   0.034846   0.000000  -0.003610
      5       0.000076   0.033310  -0.000511   0.043990  -0.000000  -0.004145
      6      -0.000147  -0.056095   0.000708  -0.006676   0.000010  -0.000787
      7      -0.000147  -0.049913  -0.000991   0.001784   0.000004  -0.001968
      8      -0.000201  -0.064745  -0.001165   0.001813   0.000005  -0.002559
      9      -0.000016  -0.006602  -0.000708   0.019781  -0.000023  -0.022652
     10       0.000057   0.016511   0.001432   0.011008   0.000012   0.000531
     11       0.000059   0.020218   0.001680   0.014440   0.000014  -0.000143
     12      -0.000119  -0.021484   0.002882  -0.017422   0.000027   0.004986
     13       0.000080  -0.021926   0.003633  -0.000177  -0.000022  -0.005212
     14       0.000091  -0.027838   0.004921  -0.000934  -0.000027  -0.005620
     15       0.000090  -0.005450  -0.012951   0.001484  -0.000088  -0.037192
     16      -0.000064   0.001120   0.004140  -0.003291   0.000053   0.022514
     17      -0.000130   0.000570   0.003713  -0.004068   0.000088   0.025642
     18       0.000203  -0.027236   0.017653   0.006721  -0.000028  -0.002690
     19      -0.000000   0.005712   0.009960  -0.000505   0.000013   0.001847
     20       0.000026   0.007797   0.015776  -0.000497   0.000033   0.003422
     21       0.000229  -0.004809  -0.052967   0.000179  -0.000326   0.016630
     22      -0.000018  -0.003819   0.023946   0.001140  -0.000045   0.005603
     23       0.000382  -0.006230   0.034698   0.001798  -0.000204   0.008966
     24       0.000008   0.008043   0.056452  -0.000708   0.000200  -0.002962
     25       0.000122  -0.003672  -0.024546   0.000429  -0.000164  -0.010879
     26      -0.000043  -0.004897  -0.034194   0.000534  -0.000057  -0.016315
     27      -0.000783   0.000770  -0.020616  -0.001299   0.000840  -0.052159
     28       0.000096   0.000098   0.019054   0.000075   0.000043   0.007547
     29       0.000132   0.000175   0.027090   0.000064  -0.000013   0.008095
     30      -0.000455  -0.001595   0.037029   0.000445   0.000327   0.016963
     31       0.001395  -0.000160  -0.006039  -0.000256  -0.001776  -0.005843
     32      -0.002716  -0.000324  -0.006685  -0.000356   0.001422  -0.007734
     33       0.000327   0.002357  -0.001871  -0.001253   0.000165  -0.034449
     34      -0.002559   0.000140  -0.006264  -0.000210   0.007474  -0.031533
     35       0.003267   0.000424  -0.009703  -0.000433  -0.005640  -0.049354
     36      -0.000698  -0.000770   0.001899   0.000221  -0.000546  -0.056182
     37      -0.072579  -0.000614   0.002202   0.000615   0.016192   0.093359
     38       0.046216  -0.001531   0.003364   0.001015  -0.008335   0.143887
     39       0.010146   0.000036  -0.000541   0.000024   0.059660   0.024866
     40      -0.002798   0.002111  -0.007216  -0.000828   0.058708  -0.157086
     41      -0.041854  -0.000805   0.003266   0.000156   0.097240   0.014026
     42      -0.011903   0.000051  -0.000523   0.000049  -0.058671   0.032442
     43       0.038136  -0.001883   0.006365   0.000505  -0.059768   0.079090
     44       0.020347   0.001469  -0.005146  -0.000674  -0.098379  -0.131315
     45      -0.000166   0.007129  -0.019414  -0.003045  -0.000330  -0.028145
     46       0.000092   0.004844  -0.005628  -0.001322  -0.000889  -0.018891
     47      -0.000225   0.007674  -0.009642  -0.002170   0.000956  -0.030239
     48      -0.000311  -0.002356  -0.007645   0.002395   0.000151   0.023472
     49      -0.001684  -0.004484   0.009258   0.001203   0.000603   0.048677
     50       0.000739  -0.006773   0.013470   0.001994  -0.000061   0.074533
     51       0.000139  -0.006421   0.003486   0.003992  -0.000020   0.041946
     52       0.000155  -0.000340  -0.040179  -0.000532   0.000023  -0.011117
     53      -0.000526  -0.001321  -0.059697  -0.000568   0.000083  -0.013887
     54       0.000035   0.039222  -0.002779  -0.021920  -0.000009  -0.000929
     55      -0.000101   0.001807  -0.009723   0.001969   0.000000   0.000686
     56      -0.000119   0.004184  -0.012573   0.001436  -0.000009   0.000856
     57      -0.000058   0.007136  -0.004458   0.016578   0.000019   0.005683
     58       0.000077   0.019447  -0.000586  -0.011177  -0.000023  -0.009558
     59       0.000106   0.024502  -0.000563  -0.013075  -0.000030  -0.011672
     60       0.000094   0.035828   0.001066   0.000383   0.000018   0.006778
     61      -0.000158  -0.055549   0.000523  -0.007077   0.000012   0.003495
     62      -0.000197  -0.067240   0.000569  -0.008647   0.000012   0.004663
     63      -0.000605  -0.211448  -0.001166   0.218457  -0.000029  -0.005507
     64       0.000953   0.308408   0.004104  -0.342623   0.000031   0.002540
     65       0.001136   0.369376   0.004982  -0.411894   0.000034   0.002815
     66       0.000552   0.254280  -0.003834   0.347433   0.000048   0.032778
     67       0.000486   0.222382  -0.003340   0.333675   0.000037   0.018991
     68       0.000608   0.287163  -0.004410   0.429182   0.000049   0.025092
     69      -0.001051  -0.474351   0.011530  -0.373390  -0.000016   0.024372
     70      -0.000092  -0.023105  -0.002080   0.030032   0.000003  -0.004920
     71      -0.000175  -0.050689  -0.001743   0.019236   0.000007  -0.004693
     72      -0.000442   0.049995   0.025314  -0.069997   0.000446   0.212285
     73       0.000189  -0.046044  -0.001899   0.016917  -0.000161  -0.069536
     74       0.000210  -0.057090  -0.002981   0.016901  -0.000175  -0.080757
     75      -0.000834   0.015730  -0.601426  -0.012221  -0.001325   0.130838
     76       0.001868  -0.015255   0.288535   0.007267   0.000331  -0.048678
     77       0.000225  -0.019875   0.378992   0.009653   0.000441  -0.062173
     78       0.002426   0.051865   0.572227   0.001843  -0.000833  -0.075488
     79      -0.000830   0.004712   0.072119   0.000948  -0.000097  -0.025113
     80       0.001866   0.010025   0.148910   0.001576  -0.000698  -0.042173
     81      -0.000689  -0.007100   0.046237   0.002530  -0.002309   0.247162
     82       0.005201  -0.002832  -0.003745   0.000768  -0.002509   0.108997
     83      -0.006204  -0.004759  -0.002006   0.001319  -0.000648   0.174926
     84       0.031183  -0.009574   0.018853   0.006131  -0.013636  -0.353986
     85       0.635704  -0.002789   0.000244   0.000790  -0.220660   0.112509
     86      -0.405962  -0.000641   0.005592   0.001227   0.142978   0.145811
     87      -0.334875   0.000906   0.002679  -0.000961  -0.173087  -0.093416
     88       0.011738   0.001517  -0.006978  -0.000332  -0.379595  -0.176485
     89       0.230438  -0.001754   0.001407   0.001078   0.240717   0.123076
     90       0.193908  -0.004849   0.012906   0.002263   0.111444   0.367939
     91      -0.023543   0.003253  -0.010198  -0.001581   0.297743  -0.275566
     92      -0.084443  -0.000421   0.001780   0.000404  -0.343244   0.040526
     93      -0.181594  -0.004162   0.017491   0.002282  -0.084923   0.373110
     94       0.066077  -0.001806   0.001979   0.000955   0.445166   0.135059
     95       0.051010   0.002402  -0.008727  -0.001185  -0.130719  -0.216775
     96       0.331317  -0.001161   0.001600  -0.000831   0.148413  -0.082940
     97      -0.224703  -0.000873   0.004743   0.001085  -0.379245   0.199121
     98      -0.088470   0.001058  -0.003993   0.000121   0.240568  -0.124982
     99       0.000268   0.064482  -0.123207  -0.026680  -0.000526  -0.039351
    100      -0.002392   0.013047  -0.066303  -0.006896   0.000393  -0.024885
    101       0.001216   0.025392  -0.110751  -0.011445  -0.000393  -0.044609
    102       0.001522   0.481832   0.023128  -0.304207   0.000064   0.018628
    103      -0.000305  -0.096875  -0.001430   0.017532   0.000010   0.002690
    104      -0.000268  -0.095411  -0.000079   0.006455   0.000007   0.004121
                 66         67         68         69         70         71    
      0       0.005902   0.002077   0.025700  -0.001349   0.010106   0.107061
      1      -0.002426  -0.001322  -0.009771   0.003616  -0.005408   0.008940
      2      -0.002683  -0.001542  -0.010779   0.004401  -0.006261   0.016033
      3      -0.021415  -0.009741  -0.018571  -0.004034   0.067862   0.058032
      4       0.011639   0.003716  -0.012380  -0.000620  -0.023404   0.025194
      5       0.013242   0.004079  -0.016207  -0.000917  -0.025505   0.034037
      6       0.006079   0.004380   0.001103   0.008248  -0.070278  -0.026657
      7       0.007392  -0.001640  -0.061232   0.002509  -0.001624  -0.017188
      8       0.009492  -0.001785  -0.075569   0.003604  -0.005681  -0.022714
      9       0.073044   0.027068  -0.001285   0.002601  -0.177756  -0.049344
     10      -0.003983   0.005500   0.111381  -0.003263  -0.020652  -0.051333
     11      -0.002194   0.007912   0.137777  -0.004007  -0.033086  -0.065597
     12      -0.012401  -0.007114  -0.109527   0.023739   0.031874   0.057344
     13       0.003024  -0.007055  -0.022851  -0.012854   0.051857   0.004678
     14       0.001492  -0.009335  -0.032750  -0.014094   0.066197   0.008068
     15       0.089803   0.013134  -0.008835  -0.031272  -0.010038   0.018579
     16      -0.057764  -0.011827  -0.023683   0.031340   0.000496   0.027416
     17      -0.066058  -0.014104  -0.031400   0.036173   0.002307   0.034381
     18      -0.041369  -0.024080   0.002704   0.008078   0.119084   0.004599
     19      -0.010294   0.006748   0.016942   0.044086  -0.066185   0.044282
     20      -0.019716   0.008219   0.027170   0.065824  -0.090174   0.067410
     21      -0.017511   0.010324  -0.003653  -0.037381   0.033022   0.022042
     22       0.007501   0.022941  -0.006906  -0.004585   0.006376  -0.005678
     23       0.010582   0.034350  -0.010652  -0.009678   0.011762  -0.007212
     24       0.000358  -0.023556  -0.005085  -0.004142  -0.023471  -0.041930
     25       0.021623   0.009105  -0.002919   0.014718   0.058556  -0.020328
     26       0.032145   0.012028  -0.004654   0.021771   0.085504  -0.032793
     27       0.025136  -0.091468   0.012210   0.076608   0.008851  -0.062266
     28      -0.029902  -0.033389   0.001192  -0.054813  -0.049016   0.028740
     29      -0.042633  -0.055293   0.002432  -0.077066  -0.072768   0.038961
     30      -0.044534  -0.009611  -0.001396  -0.073901  -0.058281   0.056428
     31       0.004668  -0.009201   0.000633   0.003839  -0.001492  -0.003549
     32       0.004127  -0.014124   0.000804   0.000943  -0.005854  -0.001794
     33       0.023979  -0.058899   0.010110   0.003138  -0.014406   0.030200
     34       0.014585  -0.037672   0.006880   0.031968   0.000428  -0.002726
     35       0.024500  -0.061572   0.011174   0.048473  -0.000101  -0.001896
     36      -0.026199   0.026293  -0.004281  -0.012603   0.012964   0.015553
     37       0.030443   0.007773  -0.000587  -0.000700   0.009365  -0.003514
     38       0.046078   0.012809  -0.001026  -0.001513   0.014904  -0.004706
     39       0.010185  -0.008032   0.001304   0.004276  -0.002516  -0.003275
     40      -0.058585   0.034186  -0.005550  -0.011619   0.004276   0.002500
     41      -0.001026  -0.006129   0.000241   0.001938  -0.006736  -0.004978
     42       0.013421  -0.010971   0.001706   0.005098  -0.002866  -0.003473
     43       0.022901  -0.016985   0.002117   0.005654  -0.006836  -0.005377
     44      -0.051083   0.025302  -0.004464  -0.008724   0.000456  -0.000102
     45       0.095167   0.034464  -0.003691   0.010404   0.100871  -0.017159
     46       0.044151   0.004226   0.003063   0.000673   0.033269   0.017214
     47       0.071718   0.008875   0.004390   0.001847   0.056351   0.024654
     48      -0.051165   0.005971   0.011228   0.079475  -0.073044  -0.011965
     49      -0.077949  -0.000416  -0.008209  -0.035200  -0.067900  -0.018843
     50      -0.119921  -0.000375  -0.011662  -0.048492  -0.106256  -0.029065
     51      -0.066043   0.012005  -0.008987   0.006641  -0.061859  -0.025602
     52       0.015155  -0.002253  -0.004074   0.024572   0.029289  -0.024471
     53       0.017790  -0.002394  -0.006602   0.039413   0.040148  -0.038789
     54       0.010319   0.011407   0.120256  -0.018181  -0.004352   0.148376
     55       0.008879   0.002378  -0.028643  -0.006834  -0.004840  -0.061570
     56       0.011458   0.003532  -0.029429  -0.009277  -0.006549  -0.069302
     57      -0.004194   0.001043  -0.014679  -0.001592  -0.018117  -0.237843
     58       0.023523   0.013440   0.118227  -0.014854  -0.015551   0.088489
     59       0.029207   0.016678   0.145562  -0.018431  -0.020359   0.098090
     60      -0.016065  -0.005827  -0.013654   0.001469   0.010968  -0.160505
     61      -0.010544  -0.006803  -0.055356   0.004614   0.023818   0.022077
     62      -0.013785  -0.008703  -0.069300   0.005789   0.029951   0.019632
     63      -0.002012  -0.006178  -0.027532   0.009781   0.014846   0.359039
     64       0.007545   0.009694   0.065617  -0.012382  -0.004831  -0.333887
     65       0.009319   0.011672   0.079606  -0.014828  -0.005207  -0.394239
     66      -0.110121  -0.036561   0.121827  -0.016658   0.276460  -0.040339
     67      -0.064691  -0.019241   0.110936  -0.011731   0.154659  -0.072485
     68      -0.085572  -0.025688   0.143247  -0.015389   0.205425  -0.091578
     69      -0.105558  -0.005824   0.615005  -0.059320   0.317115  -0.091531
     70       0.019242  -0.000145  -0.114717   0.008202  -0.037721  -0.016905
     71       0.017986  -0.000588  -0.111436   0.007268  -0.030525  -0.024955
     72      -0.586507  -0.148763   0.125208   0.100516   0.614299   0.058068
     73       0.181292   0.036157  -0.102242  -0.039044  -0.125570   0.004045
     74       0.207395   0.040098  -0.123900  -0.042456  -0.132004   0.011622
     75      -0.067204   0.258623   0.027207   0.188569  -0.189810   0.185292
     76       0.031617  -0.093288  -0.022894  -0.114559   0.119561  -0.082442
     77       0.042645  -0.118639  -0.030170  -0.156317   0.161546  -0.107639
     78       0.260359   0.327023   0.035845   0.321550   0.004177   0.095683
     79       0.075631   0.083833   0.004579   0.080213   0.071951   0.006871
     80       0.129039   0.144658   0.009036   0.139175   0.107735   0.015890
     81      -0.070151   0.521618  -0.072407  -0.153085   0.168409  -0.006111
     82      -0.002851   0.248427  -0.033829  -0.030291   0.113432  -0.038396
     83      -0.013864   0.419335  -0.057282  -0.058711   0.184322  -0.058098
     84      -0.435315   0.437548  -0.077511  -0.142587  -0.028227  -0.131953
     85       0.039846   0.000994   0.000558   0.002038   0.010043  -0.002836
     86       0.036889   0.027543  -0.003406  -0.005280   0.014963  -0.009815
     87      -0.044586  -0.011143  -0.001028   0.004760  -0.023735  -0.019242
     88      -0.051745  -0.017071   0.002109  -0.001859  -0.009759   0.027118
     89       0.048931  -0.011945   0.003355   0.003970   0.007830   0.008586
     90       0.141158  -0.033601   0.007582   0.012322   0.019503  -0.002004
     91      -0.095714   0.021588  -0.004523  -0.010458  -0.007627   0.012145
     92      -0.005330   0.031692  -0.005181  -0.005982   0.004168  -0.020881
     93       0.139281  -0.028102   0.006873   0.011203   0.019064  -0.003078
     94       0.034298   0.006589  -0.000909   0.003745   0.001744  -0.024564
     95      -0.082461   0.030017  -0.005797  -0.011088  -0.004249   0.001883
     96      -0.040618  -0.010452  -0.001058   0.004908  -0.022798  -0.020051
     97       0.073936  -0.014384   0.003738   0.007590   0.009646  -0.003491
     98      -0.040960   0.008301  -0.000809  -0.009129   0.001658   0.028988
     99       0.247107  -0.070183  -0.098328  -0.775734   0.086976   0.040565
    100       0.068796  -0.019031  -0.019622  -0.116043   0.063282  -0.016409
    101       0.136279  -0.031993  -0.040037  -0.245525   0.089893  -0.018116
    102      -0.047468  -0.046634  -0.585624   0.068491   0.051257   0.541928
    103      -0.008921  -0.003987  -0.011915  -0.000462   0.023491  -0.027930
    104      -0.012909  -0.007210  -0.042966   0.002557   0.031304  -0.008204
                 72         73         74         75         76         77    
      0       0.019145   0.051614  -0.004611  -0.037386  -0.013760   0.009546
      1       0.024438  -0.083069  -0.001925   0.080953   0.101592   0.011707
      2       0.031063  -0.100135  -0.002574   0.098144   0.124807   0.014921
      3      -0.011651   0.087784  -0.006156  -0.017284  -0.081179  -0.037156
      4       0.008409   0.015864  -0.001623  -0.061218  -0.136060  -0.031895
      5       0.009844   0.023853  -0.002315  -0.076475  -0.172135  -0.041270
      6       0.049908  -0.194413   0.003674   0.042987   0.019797   0.014343
      7      -0.014825   0.029855   0.000753   0.001893   0.028747   0.008854
      8      -0.015943   0.027167   0.001167   0.004400   0.036733   0.011668
      9       0.038261  -0.111898   0.005784  -0.078667  -0.098835  -0.008276
     10       0.013266  -0.098055   0.005211   0.033052   0.054939   0.011800
     11       0.018311  -0.127143   0.006653   0.037423   0.062454   0.013769
     12      -0.026514   0.150421  -0.002494  -0.020209   0.102136   0.045480
     13      -0.013129   0.016139  -0.003253   0.049220  -0.003478  -0.027363
     14      -0.017839   0.025906  -0.003814   0.059278  -0.000320  -0.032022
     15      -0.034195   0.078369   0.005952   0.023150   0.065352  -0.009863
     16       0.003584  -0.027207   0.016836  -0.135893  -0.054897   0.047384
     17       0.003909  -0.029881   0.020531  -0.167359  -0.066734   0.059272
     18      -0.055890  -0.125066   0.043924  -0.054360  -0.045486  -0.005564
     19      -0.057262   0.007038   0.049531  -0.081765   0.085184  -0.000350
     20      -0.087060  -0.000025   0.076201  -0.126926   0.120551  -0.000044
     21      -0.066372  -0.080587   0.062264  -0.050741  -0.021931   0.026891
     22      -0.012144   0.020377  -0.024634   0.090261  -0.036326  -0.011320
     23      -0.021911   0.025006  -0.032593   0.130789  -0.054927  -0.015166
     24       0.120709   0.052168  -0.064356  -0.064458   0.029404   0.001550
     25       0.032044  -0.025245  -0.016370  -0.034644  -0.009117   0.003958
     26       0.055057  -0.034241  -0.028159  -0.055545  -0.011418   0.005947
     27       0.171946   0.060657  -0.059906  -0.080232   0.085508  -0.016074
     28      -0.044450  -0.010373   0.062276  -0.037948   0.030538   0.009095
     29      -0.055560  -0.011612   0.089098  -0.061898   0.050989   0.013597
     30      -0.132641  -0.019342   0.069284   0.075373  -0.029694  -0.017282
     31       0.010903   0.008047   0.006764  -0.012291   0.037449  -0.032163
     32       0.008059   0.010847   0.014498  -0.013609   0.054053  -0.048787
     33      -0.091648  -0.021474  -0.047155   0.029996  -0.008451  -0.009751
     34      -0.006063   0.010384   0.028214   0.111110  -0.116832   0.057343
     35      -0.015903   0.013759   0.038217   0.168421  -0.175937   0.086158
     36      -0.088142  -0.059608  -0.226585  -0.101358   0.040176  -0.004805
     37       0.014185  -0.001852  -0.004317  -0.032317   0.026178  -0.000335
     38       0.017761  -0.005609  -0.017555  -0.054633   0.043561  -0.021258
     39       0.015495   0.010368   0.034208   0.018748  -0.009669  -0.012622
     40      -0.012520  -0.010695  -0.026619  -0.017902   0.004952   0.041549
     41       0.018153   0.013260   0.035276   0.021940  -0.008269  -0.016411
     42       0.016136   0.010710   0.034660   0.018872  -0.011973   0.024783
     43       0.020383   0.014846   0.038858   0.024849  -0.013826   0.040807
     44      -0.002183  -0.002769  -0.005717  -0.005606   0.005597  -0.037356
     45       0.065885  -0.005678   0.118623   0.017471  -0.059135   0.032561
     46      -0.039414  -0.033001  -0.001209  -0.057131   0.042715  -0.022237
     47      -0.054723  -0.049829   0.005871  -0.084503   0.060211  -0.031226
     48       0.019211   0.036171  -0.009269   0.008649   0.054473  -0.009678
     49       0.045726   0.052477  -0.071430   0.062340  -0.025602   0.005990
     50       0.069560   0.080890  -0.107599   0.094128  -0.035052   0.007513
     51       0.016417   0.033688  -0.047721   0.063069  -0.045327   0.002899
     52       0.031837   0.002300  -0.017876   0.021706  -0.019583  -0.002868
     53       0.048723   0.006076  -0.029982   0.037095  -0.031798  -0.004450
     54       0.099248  -0.016214  -0.037617   0.091200   0.022459  -0.004744
     55      -0.003372  -0.017243  -0.007810   0.076724   0.025946  -0.022050
     56       0.000159  -0.022340  -0.011213   0.099529   0.033494  -0.027752
     57      -0.089183   0.051165   0.016767  -0.087474  -0.140739  -0.037245
     58       0.024769   0.075569  -0.010908  -0.060670  -0.077757  -0.000947
     59       0.026567   0.096355  -0.012782  -0.079266  -0.102676  -0.002793
     60      -0.048262  -0.035046   0.010958   0.055138   0.102657   0.023078
     61      -0.006530   0.022734   0.000569  -0.003388   0.004101   0.001024
     62      -0.010512   0.026553   0.001298  -0.001608   0.010047   0.002391
     63       0.151944  -0.156389  -0.023783   0.131867   0.101010  -0.002987
     64      -0.162832   0.221043   0.024441  -0.155082  -0.046291   0.033222
     65      -0.193444   0.265193   0.028973  -0.184795  -0.052024   0.040850
     66      -0.118074   0.263923   0.001674   0.114300   0.371503   0.087624
     67      -0.087396   0.167798   0.006173   0.051816   0.263351   0.080473
     68      -0.113869   0.220810   0.007611   0.069916   0.343541   0.103684
     69      -0.156505   0.378080   0.001872   0.071848   0.322100   0.052892
     70       0.000384  -0.015564   0.001381  -0.001922   0.008856   0.008038
     71      -0.006890  -0.000979   0.001642   0.001204   0.026059   0.012256
     72      -0.019320  -0.334859   0.031144   0.129367  -0.354361  -0.196934
     73      -0.020119   0.174757  -0.013190   0.001893   0.141891   0.047996
     74      -0.024660   0.210322  -0.016004   0.012294   0.168089   0.052318
     75      -0.362337   0.097561   0.023381   0.373821  -0.056545  -0.058526
     76       0.122357  -0.070930  -0.004163  -0.104431  -0.025426   0.029055
     77       0.157926  -0.095626  -0.006295  -0.131086  -0.043610   0.039558
     78      -0.296703   0.095485  -0.019252   0.477378  -0.099728  -0.063196
     79      -0.054658  -0.022733  -0.006443   0.073431  -0.040026  -0.008006
     80      -0.099172  -0.028062  -0.011054   0.139957  -0.065889  -0.015319
     81      -0.014185  -0.127699  -0.160904  -0.160917  -0.097511   0.164169
     82       0.080494  -0.042584  -0.106388  -0.135350   0.009288   0.070878
     83       0.118492  -0.074710  -0.175629  -0.215452   0.007659   0.082474
     84       0.524947   0.212869   0.663046  -0.035635   0.188242  -0.115785
     85       0.010755  -0.004164  -0.013304  -0.036529   0.028881  -0.022297
     86       0.038826   0.002727   0.010548  -0.055287   0.048620  -0.010220
     87       0.075018   0.053755   0.165953   0.095506  -0.044179   0.022737
     88      -0.132564  -0.057783  -0.268711  -0.043026   0.019559  -0.396941
     89      -0.033273  -0.021254  -0.076739  -0.035520   0.018460  -0.083078
     90       0.026699  -0.000281   0.045164  -0.047258   0.033033   0.246875
     91      -0.065758  -0.026189  -0.122924  -0.002030  -0.006974  -0.194435
     92       0.098540   0.041071   0.183704   0.019240  -0.005139   0.281239
     93       0.033693   0.005968   0.066496  -0.037336   0.066916  -0.323542
     94       0.121520   0.056909   0.237488   0.032715   0.041758  -0.384187
     95      -0.016680  -0.007041  -0.034348   0.002426  -0.013415   0.062002
     96       0.079384   0.055687   0.175160   0.096248  -0.039959  -0.023427
     97       0.026183   0.006637   0.045131  -0.014724   0.024693  -0.111800
     98      -0.141519  -0.072595  -0.300031  -0.065913  -0.032900   0.453744
     99       0.023991  -0.005794  -0.052394   0.080097  -0.036853   0.024072
    100       0.039481  -0.004553  -0.022362   0.029728  -0.021713  -0.001006
    101       0.060471  -0.004668  -0.036747   0.045478  -0.030562   0.004711
    102       0.184248  -0.203884  -0.021378   0.144022   0.102389  -0.021078
    103      -0.025055   0.039621   0.003122  -0.010295   0.008234   0.006208
    104      -0.021557   0.039023   0.002631  -0.005279   0.015598   0.006817
                 78         79         80         81         82         83    
      0      -0.016333  -0.015560   0.033900  -0.001199  -0.080432   0.035748
      1      -0.013386  -0.010423   0.031991  -0.001921   0.015115  -0.005421
      2      -0.017333  -0.013654   0.041122  -0.002416   0.014774  -0.004991
      3       0.055836   0.026549   0.084425  -0.009292   0.010629   0.029705
      4       0.042914   0.019640  -0.007873  -0.000347   0.025844  -0.005722
      5       0.055793   0.025579  -0.005552  -0.000927   0.032461  -0.005619
      6      -0.025474  -0.018239  -0.151930   0.016548   0.098901  -0.107283
      7      -0.010950   0.006689  -0.020161   0.000054  -0.010054   0.009512
      8      -0.014836   0.007359  -0.032333   0.000816  -0.007583   0.006468
      9       0.006433  -0.011804   0.072557  -0.005846  -0.116429   0.076370
     10      -0.019209  -0.041552   0.096562  -0.002800  -0.054859   0.016978
     11      -0.022868  -0.051842   0.123004  -0.003783  -0.073084   0.024572
     12      -0.062044   0.000504  -0.088413   0.002690  -0.005918   0.012774
     13       0.044896   0.038035   0.000091  -0.003110   0.054212  -0.009033
     14       0.053007   0.046864  -0.003032  -0.003796   0.066874  -0.010641
     15       0.016884  -0.032432   0.177300  -0.000165   0.065303  -0.107513
     16      -0.086556  -0.106149  -0.003631   0.014781  -0.085229  -0.050731
     17      -0.108288  -0.134123   0.001802   0.018742  -0.107470  -0.068381
     18      -0.010128  -0.103912  -0.009099   0.016993   0.024040  -0.101944
     19       0.016502   0.061639   0.063218  -0.010579   0.102803  -0.031012
     20       0.022164   0.081840   0.093055  -0.014156   0.151689  -0.053776
     21      -0.013507   0.213239  -0.048545  -0.004884  -0.156500  -0.020006
     22       0.001388  -0.085617  -0.006724   0.009523  -0.011158  -0.014267
     23       0.001389  -0.113021  -0.013440   0.013823  -0.026201  -0.021989
     24      -0.013489  -0.130187   0.024490  -0.014676   0.163309   0.151968
     25      -0.006267   0.008491  -0.016582  -0.001637  -0.019510   0.022125
     26      -0.010129   0.004804  -0.023210  -0.003277  -0.018795   0.042235
     27       0.032567   0.032792   0.082749   0.014943   0.026487  -0.190734
     28      -0.001131   0.048490   0.010834  -0.012744   0.061138   0.049925
     29       0.001124   0.073855   0.021223  -0.017936   0.092783   0.062738
     30       0.006839  -0.097668  -0.058678  -0.009054  -0.030997   0.067198
     31       0.035087  -0.066767  -0.032511  -0.000487  -0.044053  -0.013334
     32       0.053151  -0.106192  -0.052305  -0.001459  -0.067699  -0.015641
     33       0.010585   0.007289  -0.015681   0.052444  -0.073767  -0.025567
     34      -0.069158   0.077694   0.045141   0.000607   0.048648   0.011859
     35      -0.102442   0.116517   0.066733   0.004771   0.068554   0.016542
     36      -0.004625   0.013464   0.017034   0.054447   0.054615   0.046452
     37       0.023218  -0.017482  -0.008406  -0.015555  -0.006958  -0.007450
     38       0.016458  -0.020201  -0.011268  -0.023559  -0.007026  -0.009258
     39      -0.016976  -0.001485  -0.005133  -0.051207  -0.007400  -0.016079
     40       0.037347   0.006022   0.014267   0.103999   0.018796   0.031837
     41      -0.016930  -0.002114  -0.005018  -0.034736  -0.009511  -0.012207
     42       0.018333  -0.014121  -0.007589  -0.052756  -0.009965  -0.017552
     43       0.036108  -0.024672  -0.012776  -0.067649  -0.018309  -0.023618
     44      -0.035329   0.023298   0.012884   0.073015   0.014737   0.023054
     45      -0.044665  -0.039500   0.043501  -0.036090   0.100155   0.007356
     46       0.025407  -0.035518  -0.026435   0.004418  -0.017015   0.018577
     47       0.035323  -0.055496  -0.036859   0.004150  -0.019150   0.028276
     48       0.047521   0.254922  -0.067747  -0.006579  -0.188176   0.000525
     49      -0.011211  -0.003178   0.037602   0.013837  -0.012728  -0.091021
     50      -0.014311   0.012031   0.052465   0.020200  -0.030800  -0.136487
     51      -0.021503  -0.123678  -0.032866  -0.008226   0.081358   0.171091
     52       0.002224   0.001167  -0.046181  -0.002230  -0.045260   0.062284
     53       0.002329  -0.005950  -0.071242  -0.004056  -0.061959   0.105070
     54       0.013874   0.058771  -0.105725  -0.003883   0.003049   0.062466
     55       0.040872   0.056095   0.002885  -0.008889   0.011185   0.050234
     56       0.051715   0.072907  -0.001056  -0.011221   0.014279   0.065184
     57       0.049997   0.000077   0.123680  -0.008096  -0.035336   0.032306
     58      -0.002085   0.008257  -0.091619   0.006776   0.046307  -0.037230
     59      -0.000400   0.010195  -0.107662   0.008011   0.055991  -0.044496
     60      -0.029128   0.017392  -0.178534   0.011612   0.128442  -0.083094
     61      -0.001133   0.001045   0.011790  -0.001295  -0.027469   0.017198
     62      -0.002812   0.002162   0.006000  -0.001005  -0.027889   0.017306
     63       0.008130  -0.025331   0.190096  -0.012472  -0.059670   0.050963
     64      -0.053056   0.000755  -0.176099   0.012999  -0.033224  -0.015619
     65      -0.065078  -0.000335  -0.208116   0.015449  -0.044039  -0.016633
     66      -0.114081  -0.037571   0.089362  -0.007806  -0.149039   0.087585
     67      -0.110602  -0.036664  -0.021651   0.002409  -0.111609   0.039955
     68      -0.142208  -0.046955  -0.022541   0.002536  -0.145283   0.053672
     69      -0.062923  -0.061872   0.456760  -0.036178  -0.324458   0.246332
     70      -0.011180   0.009679  -0.070944   0.004364   0.018161  -0.015959
     71      -0.016579   0.008929  -0.065272   0.003510   0.006848  -0.007637
     72       0.282678   0.088066   0.100728  -0.004105   0.279091  -0.144938
     73      -0.062122   0.010084  -0.054874  -0.000957  -0.032011   0.037045
     74      -0.065873   0.020653  -0.072067  -0.001763  -0.024976   0.043133
     75       0.025540  -0.380617   0.074515   0.040859   0.100397  -0.204886
     76      -0.017216   0.199539  -0.070558  -0.010716  -0.148229   0.066080
     77      -0.025485   0.264615  -0.098180  -0.012719  -0.213066   0.083371
     78       0.059665  -0.078782   0.024663   0.063110  -0.246713  -0.413750
     79       0.006477   0.024831  -0.022299   0.013904  -0.112922  -0.088907
     80       0.013883   0.032585  -0.031939   0.024806  -0.183939  -0.157679
     81      -0.185684   0.417253   0.184094  -0.039847   0.262496   0.076070
     82      -0.040660   0.178528   0.086584  -0.011942   0.099075  -0.012573
     83      -0.111333   0.311808   0.145232  -0.033139   0.170133  -0.015420
     84       0.157279  -0.178914  -0.104774  -0.087107  -0.182216  -0.122096
     85       0.001930  -0.009382  -0.006483  -0.016739  -0.002819  -0.005517
     86       0.035308  -0.030134  -0.015968  -0.030957  -0.014170  -0.014759
     87       0.006902  -0.009055  -0.003556  -0.006017  -0.022368  -0.014223
     88      -0.390912   0.068283  -0.032613  -0.480845  -0.014276  -0.110411
     89      -0.073034   0.007199  -0.012166  -0.129752  -0.003896  -0.029703
     90       0.278462  -0.060487   0.015054   0.347875   0.011260   0.086612
     91      -0.209997   0.051891  -0.006160  -0.213282   0.002360  -0.045773
     92       0.284431  -0.055410   0.023376   0.356228   0.014439   0.084016
     93      -0.252541   0.111313   0.039241   0.306419   0.034396   0.088010
     94      -0.320617   0.134743   0.049101   0.338342   0.035994   0.090309
     95       0.043239  -0.011854   0.000257  -0.021356   0.004137  -0.003181
     96      -0.033873   0.004766  -0.000601   0.005489  -0.019826  -0.010291
     97      -0.086290   0.034310   0.009609   0.070428   0.009251   0.019552
     98       0.390553  -0.172514  -0.063474  -0.423706  -0.040887  -0.110632
     99      -0.044844  -0.006695   0.143926   0.059964  -0.128846  -0.516570
    100       0.001730   0.034176  -0.017729   0.010350  -0.097813  -0.064421
    101      -0.007169   0.048163  -0.017290   0.020838  -0.160976  -0.139219
    102       0.033693  -0.061708   0.519315  -0.034671  -0.297841   0.206378
    103      -0.008462   0.007602  -0.049353   0.002721   0.004788  -0.005849
    104      -0.009030   0.006302  -0.036258   0.001775  -0.008105   0.002781
                 84         85         86         87         88         89    
      0       0.177077  -0.054001   0.032740   0.000031  -0.012622  -0.133651
      1      -0.128081   0.019018  -0.005840   0.152772  -0.046737   0.078307
      2      -0.149707   0.020859  -0.005609   0.188770  -0.058371   0.090280
      3      -0.154802   0.101258  -0.058395  -0.139262   0.057301   0.107218
      4      -0.023041   0.026912  -0.019514  -0.171204   0.058863  -0.005113
      5      -0.036182   0.038228  -0.026979  -0.218440   0.075575  -0.001013
      6       0.034751  -0.160359   0.090623   0.014585  -0.022892  -0.279280
      7       0.053522   0.000286   0.000466   0.109679  -0.033466   0.054199
      8       0.067950  -0.007619   0.005049   0.136331  -0.042480   0.053133
      9       0.175422   0.083704  -0.051450   0.124241  -0.034578   0.319569
     10      -0.039624   0.003382  -0.001470  -0.184935   0.051274  -0.107620
     11      -0.039755   0.007932  -0.004328  -0.222174   0.061616  -0.116659
     12      -0.100214   0.104865  -0.050944  -0.070110   0.020091  -0.107089
     13       0.031620  -0.037144   0.014718   0.031896  -0.000855   0.013613
     14       0.034809  -0.041496   0.015935   0.036202  -0.000045   0.012139
     15      -0.024488  -0.395638   0.203552  -0.068769   0.079228   0.095687
     16      -0.041035  -0.038443   0.028106  -0.024969  -0.023222   0.056160
     17      -0.054029  -0.067473   0.046270  -0.035823  -0.027056   0.074167
     18       0.058401   0.212713  -0.173715  -0.002592  -0.148198   0.040497
     19       0.026788   0.028538  -0.048575   0.047668   0.118598   0.003402
     20       0.043396   0.054862  -0.082321   0.069989   0.165225   0.009412
     21      -0.036454   0.029572   0.105432   0.079659   0.223571  -0.086858
     22       0.002746  -0.004781   0.000811  -0.045778  -0.123139   0.015703
     23       0.002034  -0.004173   0.007050  -0.062828  -0.168665   0.017914
     24       0.001880  -0.142909  -0.134709  -0.020654  -0.027647   0.143275
     25      -0.007865  -0.025724  -0.032321   0.038221   0.105664   0.028306
     26      -0.011619  -0.046814  -0.056523   0.055642   0.155491   0.050815
     27       0.044969   0.152135   0.045616  -0.023846  -0.112542  -0.139722
     28       0.000199   0.008819   0.048465  -0.071784  -0.194931  -0.044857
     29       0.002974   0.022649   0.074953  -0.108581  -0.297751  -0.075626
     30      -0.015978   0.013290   0.099936   0.025665   0.094947   0.051504
     31      -0.004209   0.018198   0.039959   0.014276   0.044313   0.009720
     32      -0.007299   0.027983   0.065957   0.022941   0.072163   0.017777
     33      -0.014675  -0.228736  -0.458316   0.026637   0.014445  -0.113353
     34       0.006627   0.001260  -0.005150   0.001004   0.005073   0.024452
     35       0.009025  -0.012275  -0.035983   0.003220   0.008668   0.029567
     36       0.005398   0.104781   0.214097  -0.012862  -0.009356   0.040336
     37       0.000168   0.008953   0.014810  -0.001513  -0.003329  -0.001006
     38       0.000652   0.019530   0.034469  -0.003092  -0.005820   0.000665
     39       0.000273  -0.007589  -0.017425   0.000576  -0.000578  -0.002902
     40       0.000497   0.018884   0.038063  -0.000930   0.001792   0.007144
     41      -0.000872  -0.015753  -0.028576   0.001311   0.000816  -0.004364
     42       0.000163  -0.007838  -0.018019   0.000805  -0.000055  -0.003047
     43      -0.001103  -0.021428  -0.040360   0.001660   0.000357  -0.006777
     44       0.000180   0.009482   0.020666  -0.000414   0.001441   0.004268
     45       0.023357   0.116779   0.152949   0.011208   0.036708   0.027321
     46      -0.006343  -0.030748  -0.046216   0.000469  -0.005030  -0.016610
     47      -0.007987  -0.038732  -0.059514   0.001373  -0.005337  -0.023092
     48      -0.053731  -0.132191   0.068779  -0.108413  -0.215417   0.192196
     49       0.015628   0.041384  -0.013983   0.040916   0.103528  -0.001852
     50       0.020172   0.053411  -0.016465   0.054463   0.141399   0.009480
     51      -0.010498   0.003690   0.056469   0.055973   0.141885  -0.168047
     52      -0.022802  -0.038134   0.040721  -0.021999  -0.045389  -0.014702
     53      -0.034918  -0.057727   0.065064  -0.029347  -0.058618  -0.032998
     54       0.056482   0.100700  -0.050110  -0.032307   0.011260  -0.024438
     55       0.030045   0.062470  -0.033110   0.004649   0.006376  -0.030309
     56       0.040126   0.082204  -0.043349   0.004398   0.008565  -0.038830
     57      -0.138533   0.024580   0.008211   0.245253  -0.116606  -0.237361
     58      -0.049200  -0.022661   0.019097   0.155110  -0.054846   0.003702
     59      -0.067836  -0.026784   0.024008   0.203858  -0.073074  -0.007200
     60      -0.062482   0.033698  -0.037629  -0.149986   0.081641   0.270831
     61       0.088732  -0.010699   0.002658  -0.082886   0.027381  -0.034595
     62       0.106770  -0.011495   0.001440  -0.109800   0.037788  -0.029761
     63      -0.160021   0.015976   0.005948   0.218064  -0.080035  -0.019839
     64       0.382498  -0.088050   0.037434  -0.139270   0.041754  -0.101374
     65       0.464380  -0.107873   0.046481  -0.161221   0.047576  -0.126262
     66       0.155052  -0.002169   0.007983   0.263903  -0.085212   0.066584
     67       0.277347  -0.076807   0.045284   0.186892  -0.068474  -0.054855
     68       0.350360  -0.095134   0.056515   0.243927  -0.088912  -0.064656
     69      -0.032583   0.220114  -0.116453   0.016677   0.008253   0.298947
     70       0.075263  -0.030243   0.017113   0.129138  -0.042563   0.018405
     71       0.091872  -0.026758   0.015391   0.160855  -0.052177   0.037926
     72       0.276829  -0.467771   0.228941   0.223109  -0.032966   0.285006
     73      -0.088850   0.140549  -0.073719  -0.063751   0.019099  -0.112759
     74      -0.101414   0.156562  -0.081429  -0.070203   0.021611  -0.132244
     75       0.080679   0.139524  -0.060248  -0.121288  -0.363635   0.028279
     76      -0.053377  -0.050308   0.083649   0.048684   0.153687  -0.041562
     77      -0.075155  -0.071564   0.122835   0.064052   0.204556  -0.057816
     78       0.035896   0.209570   0.161166  -0.037109  -0.129150  -0.139123
     79      -0.004258   0.041258   0.026800   0.043094   0.108348  -0.026487
     80      -0.004147   0.074121   0.050496   0.061397   0.152627  -0.048097
     81       0.016204  -0.179269  -0.342249  -0.082328  -0.268288  -0.121608
     82       0.012607  -0.071313  -0.173812  -0.040391  -0.139646  -0.077456
     83       0.020364  -0.121398  -0.289185  -0.067164  -0.231014  -0.125890
     84      -0.016465  -0.149916  -0.294828   0.016604   0.007978  -0.077792
     85       0.000723   0.017050   0.030520  -0.002795  -0.004935   0.002613
     86       0.000202   0.016741   0.029057  -0.003320  -0.007053  -0.000107
     87      -0.003465  -0.053128  -0.095119   0.006413   0.008554  -0.012402
     88       0.005722   0.005110  -0.002453  -0.007264  -0.021474  -0.007100
     89       0.002377   0.015904   0.022609  -0.003408  -0.007986   0.001126
     90      -0.003650   0.028576   0.063874   0.003408   0.017243   0.016662
     91       0.002699  -0.006526  -0.015195  -0.003692  -0.011869  -0.005534
     92      -0.003029   0.016920   0.038976   0.005032   0.018812   0.012252
     93      -0.002627   0.020746   0.049943   0.001120   0.009775   0.013862
     94      -0.002490   0.010308   0.027316   0.003798   0.014399   0.010404
     95       0.000856   0.003307   0.006731  -0.000738  -0.001140   0.000882
     96      -0.003576  -0.053342  -0.094952   0.006443   0.008711  -0.012352
     97       0.000186   0.013351   0.023270  -0.000706   0.000123   0.003982
     98       0.004911   0.015984   0.015728  -0.005988  -0.016628  -0.004050
     99       0.064924   0.184506  -0.175168  -0.015474  -0.059998   0.155136
    100      -0.011527  -0.017443   0.008034  -0.039551  -0.092553   0.054180
    101      -0.014841  -0.002425  -0.006801  -0.062700  -0.143419   0.091836
    102       0.066137  -0.012084   0.030555   0.156528  -0.085923  -0.289828
    103       0.097409  -0.011605  -0.001356  -0.124258   0.047445   0.011689
    104       0.123629  -0.014694  -0.000368  -0.146053   0.054905   0.000970
                 90         91         92         93         94         95    
      0       0.070449  -0.000000   0.000009   0.056145  -0.028137   0.000320
      1      -0.037416   0.000000  -0.000002   0.014008  -0.009297   0.000097
      2      -0.042797   0.000000  -0.000002   0.020069  -0.012865   0.000135
      3      -0.061025  -0.000000   0.000005  -0.040396  -0.044258   0.000493
      4      -0.001854   0.000001   0.000002   0.017342   0.021392  -0.000231
      5      -0.005354  -0.000001   0.000002   0.019448   0.024260  -0.000261
      6       0.152502   0.000001  -0.000006  -0.000333  -0.000907  -0.000003
      7      -0.027146   0.000002  -0.000006  -0.010652  -0.023356   0.000211
      8      -0.025988  -0.000000  -0.000008  -0.013185  -0.028912   0.000260
      9      -0.173475  -0.000000   0.000006  -0.000310  -0.001172   0.000017
     10       0.056339   0.000001  -0.000002   0.000187   0.000331  -0.000006
     11       0.060973  -0.000000  -0.000003   0.000215   0.000346  -0.000006
     12       0.063935  -0.000000   0.000005  -0.000202  -0.000025   0.000011
     13      -0.004993   0.000001   0.000000   0.000079  -0.000041   0.000004
     14      -0.003242  -0.000001   0.000001   0.000086  -0.000049   0.000005
     15      -0.082156   0.000001  -0.000023  -0.000054   0.000187  -0.000033
     16      -0.038520   0.000000   0.000003  -0.000249  -0.000060   0.000003
     17      -0.052713  -0.000000   0.000002  -0.000312  -0.000066   0.000001
     18       0.151215  -0.000001   0.000025   0.000010  -0.000029   0.000051
     19       0.060322  -0.000001   0.000032   0.000005   0.000009   0.000041
     20       0.097928  -0.000002   0.000049   0.000006   0.000009   0.000065
     21      -0.130935  -0.000003   0.000052  -0.000003   0.000053  -0.000023
     22       0.002596   0.000000  -0.000021  -0.000002   0.000033  -0.000077
     23      -0.003720   0.000002  -0.000029  -0.000004   0.000051  -0.000116
     24       0.231072   0.000005  -0.000087   0.000010   0.000070  -0.000243
     25       0.060958  -0.000004   0.000017  -0.000016  -0.000096   0.000279
     26       0.105161  -0.000000   0.000019  -0.000023  -0.000140   0.000402
     27      -0.223511  -0.000001   0.000116  -0.000004  -0.000006  -0.000025
     28      -0.099561  -0.000003   0.000056   0.000004   0.000005   0.000017
     29      -0.162298   0.000006   0.000093   0.000006   0.000006   0.000024
     30       0.083684  -0.000048  -0.000132   0.000004   0.000009  -0.000189
     31       0.018059   0.000041   0.000119   0.000003   0.000005  -0.000165
     32       0.032214  -0.000034   0.000172   0.000004   0.000007  -0.000244
     33      -0.162246   0.000027  -0.000564   0.000001  -0.000021  -0.002213
     34       0.041273   0.000082  -0.000054  -0.000004  -0.000006  -0.000022
     35       0.051666  -0.000058  -0.000107  -0.000005  -0.000010  -0.000131
     36       0.055038   0.000125  -0.003460   0.000001  -0.000008  -0.001096
     37      -0.002332   0.000401   0.000078   0.000011   0.000460   0.046407
     38      -0.000585  -0.000202  -0.000062   0.000017   0.000721   0.072548
     39      -0.003862   0.015482   0.018108  -0.000002  -0.000027  -0.002682
     40       0.010140  -0.038433  -0.045316   0.000001  -0.000053  -0.005711
     41      -0.006089   0.010092   0.013040  -0.000001  -0.000050  -0.005314
     42      -0.004036  -0.018596   0.018913  -0.000002  -0.000028  -0.002710
     43      -0.009513  -0.026895   0.028421  -0.000001  -0.000023  -0.002376
     44       0.006035   0.032508  -0.032773   0.000001  -0.000071  -0.007677
     45       0.048636  -0.000007   0.000109  -0.000003   0.000001   0.000103
     46      -0.026744   0.000009   0.000008   0.000000   0.000000  -0.000022
     47      -0.036940  -0.000006   0.000020  -0.000000   0.000001  -0.000038
     48       0.257905  -0.000002   0.000050   0.000015   0.000015   0.000247
     49       0.018844  -0.000000  -0.000006  -0.000004  -0.000004  -0.000071
     50       0.044676  -0.000000  -0.000006  -0.000005  -0.000005  -0.000099
     51      -0.271524   0.000001  -0.000030  -0.000038  -0.000066   0.000162
     52      -0.051433  -0.000002  -0.000040   0.000030   0.000091  -0.000326
     53      -0.094802   0.000006  -0.000061   0.000042   0.000134  -0.000481
     54       0.003455  -0.000000   0.000009   0.000225   0.000115   0.000008
     55       0.018239  -0.000001   0.000001   0.000039   0.000018   0.000002
     56       0.022774   0.000001   0.000001   0.000061   0.000025   0.000002
     57       0.148559   0.000000   0.000001   0.000755  -0.001767   0.000017
     58      -0.002236  -0.000000   0.000001   0.000151  -0.000156   0.000002
     59       0.004459   0.000000   0.000001   0.000222  -0.000273   0.000004
     60      -0.152787   0.000000  -0.000003  -0.004353   0.005794  -0.000058
     61       0.016187  -0.000001   0.000005  -0.017840   0.028272  -0.000239
     62       0.012727   0.000000   0.000005  -0.022264   0.035223  -0.000298
     63       0.016613   0.000004  -0.000067  -0.654330   0.333575  -0.003692
     64       0.049110   0.000001  -0.000019  -0.167269   0.087362  -0.000967
     65       0.061585   0.000002  -0.000028  -0.238808   0.124322  -0.001376
     66      -0.030515  -0.000001   0.000007   0.468070   0.517046  -0.005647
     67       0.032707   0.000002  -0.000003  -0.210919  -0.235210   0.002570
     68       0.038783  -0.000001  -0.000003  -0.237653  -0.265259   0.002899
     69      -0.157971  -0.000000   0.000012   0.016291   0.034345  -0.000304
     70      -0.007569  -0.000002   0.000076   0.127561   0.271583  -0.002451
     71      -0.017337  -0.000007   0.000095   0.158476   0.337378  -0.003044
     72      -0.194550   0.000002  -0.000039  -0.000071   0.001140  -0.000078
     73       0.081612   0.000002  -0.000015  -0.000394   0.000301  -0.000045
     74       0.092282   0.000001  -0.000020  -0.000461   0.000406  -0.000059
     75       0.021065  -0.000004   0.000129   0.000042  -0.000579   0.001169
     76      -0.076458   0.000008   0.000073   0.000034  -0.000359   0.000768
     77      -0.113388  -0.000011   0.000117   0.000044  -0.000569   0.001219
     78      -0.253378  -0.000019   0.000335  -0.000136  -0.000777   0.002481
     79      -0.030949   0.000011  -0.000456   0.000185   0.001099  -0.003495
     80      -0.062434   0.000041  -0.000657   0.000266   0.001584  -0.005051
     81      -0.207906   0.000515   0.001134   0.000016   0.000051  -0.000421
     82      -0.129039   0.000208  -0.000550  -0.000007  -0.000026   0.000087
     83      -0.209960  -0.000086  -0.000757  -0.000010  -0.000038   0.000085
     84      -0.113255   0.000114  -0.002663   0.000008   0.000204   0.019852
     85       0.002760   0.000077   0.011310  -0.000130  -0.005308  -0.533698
     86      -0.001756  -0.001512   0.017578  -0.000202  -0.008298  -0.834492
     87      -0.016405  -0.284256  -0.307132   0.000022   0.000265   0.024655
     88      -0.012092   0.031979   0.031221  -0.000004  -0.000050  -0.004558
     89       0.000998  -0.363625  -0.392293   0.000023   0.000362   0.035213
     90       0.025318   0.105921   0.114319  -0.000002   0.000147   0.016127
     91      -0.009132   0.422926   0.450188  -0.000009   0.000429   0.047858
     92       0.019333   0.242295   0.260653  -0.000006   0.000237   0.026558
     93       0.020735  -0.102353   0.096021  -0.000003   0.000138   0.015256
     94       0.016471  -0.038872   0.038157  -0.000002   0.000028   0.003283
     95       0.000986  -0.523811   0.484746  -0.000017   0.000511   0.057237
     96      -0.016367   0.316137  -0.296156   0.000022   0.000283   0.026588
     97       0.005828   0.355752  -0.331568   0.000020   0.000345   0.033775
     98      -0.007382   0.142639  -0.136277   0.000007   0.000120   0.011827
     99       0.335155   0.000012  -0.000326   0.000278   0.000767  -0.002776
    100       0.064404  -0.000038   0.000433  -0.000369  -0.001097   0.003828
    101       0.126298  -0.000018   0.000640  -0.000551  -0.001612   0.005619
    102       0.165370   0.000000  -0.000009   0.033103  -0.050250   0.000430
    103      -0.011057   0.000002  -0.000062   0.214219  -0.327862   0.002785
    104      -0.005997   0.000005  -0.000078   0.266395  -0.407699   0.003464
                 96         97         98         99        100        101    
      0      -0.038993  -0.000044   0.000521  -0.030870  -0.000000   0.000023
      1      -0.007809  -0.000007   0.000147  -0.008396  -0.000000   0.000022
      2      -0.011563  -0.000011   0.000206  -0.011887  -0.000001   0.000028
      3       0.005352  -0.000157   0.001144  -0.040679  -0.000000   0.000023
      4       0.000350   0.000051  -0.000454   0.017386   0.000001  -0.000022
      5       0.000700   0.000061  -0.000508   0.019483  -0.000001  -0.000029
      6      -0.003954   0.000049  -0.000229   0.006991   0.000000  -0.000009
      7      -0.029519   0.000028  -0.000992   0.038826   0.000001  -0.000068
      8      -0.036682   0.000045  -0.001242   0.048337  -0.000000  -0.000085
      9      -0.001992  -0.000173   0.000059   0.003077   0.000000   0.000050
     10       0.001080   0.000048   0.000002  -0.001048   0.000000   0.000028
     11       0.001236   0.000070  -0.000003  -0.001142  -0.000001   0.000035
     12       0.000122   0.000467  -0.000228  -0.000180   0.000000  -0.000159
     13      -0.000094   0.000320  -0.000123   0.000157   0.000000   0.000005
     14      -0.000112   0.000458  -0.000184   0.000179  -0.000001  -0.000007
     15      -0.000079   0.000280  -0.000004  -0.000273   0.000000   0.000410
     16       0.000003  -0.000321   0.000251   0.000032   0.000001   0.000407
     17       0.000000  -0.000439   0.000348   0.000028   0.000000   0.000588
     18       0.000024   0.002287  -0.000591   0.000048   0.000001   0.001334
     19      -0.000024   0.001391  -0.000603  -0.000023  -0.000003  -0.001309
     20      -0.000030   0.002220  -0.000933  -0.000031  -0.000001  -0.001868
     21      -0.000108   0.003970   0.013836   0.000339   0.000038   0.052808
     22      -0.000083   0.004455   0.011617   0.000296   0.000023   0.034192
     23      -0.000130   0.006859   0.018180   0.000464   0.000041   0.054240
     24      -0.000174   0.011931   0.028050   0.000601  -0.000012  -0.014562
     25       0.000248  -0.016690  -0.040424  -0.000883   0.000018   0.015617
     26       0.000359  -0.024104  -0.058413  -0.001276   0.000019   0.022315
     27      -0.000008   0.000685   0.002370   0.000077   0.000005  -0.001609
     28      -0.000008   0.000860   0.001338   0.000025   0.000020  -0.000867
     29      -0.000013   0.001307   0.002130   0.000041  -0.000007  -0.001399
     30      -0.000006   0.000018   0.000001  -0.000023  -0.000087   0.000171
     31      -0.000003  -0.000016  -0.000118  -0.000017   0.000092   0.000135
     32      -0.000005  -0.000028  -0.000169  -0.000026  -0.000011   0.000217
     33      -0.000000   0.000180  -0.000171  -0.000008  -0.000015   0.000164
     34       0.000004  -0.000065  -0.000147   0.000008  -0.000478  -0.000095
     35       0.000005  -0.000082  -0.000231   0.000012   0.000291  -0.000131
     36      -0.000002   0.000014  -0.000029  -0.000009  -0.000007  -0.000025
     37       0.000020  -0.000214   0.000432   0.000058   0.000122  -0.000012
     38       0.000032  -0.000331   0.000674   0.000090   0.000197  -0.000020
     39      -0.000001   0.000028  -0.000012  -0.000004  -0.035532   0.000085
     40      -0.000005   0.000059  -0.000106  -0.000018  -0.031064   0.000082
     41      -0.000005   0.000050  -0.000083  -0.000017  -0.053830   0.000130
     42      -0.000001   0.000029  -0.000005  -0.000004   0.036164   0.000031
     43      -0.000002   0.000024  -0.000027  -0.000009   0.034663   0.000027
     44      -0.000006   0.000082  -0.000129  -0.000026   0.052623   0.000054
     45      -0.000001   0.000085  -0.000213  -0.000009   0.000004  -0.000114
     46      -0.000000  -0.000043  -0.000035  -0.000003   0.000051   0.000039
     47      -0.000000  -0.000049  -0.000072  -0.000005  -0.000033   0.000051
     48      -0.000009  -0.003674   0.001356   0.000030  -0.000000   0.000029
     49      -0.000001   0.000165   0.000287   0.000016   0.000017  -0.000141
     50      -0.000002   0.000014   0.000516   0.000027  -0.000016  -0.000204
     51       0.000080   0.030160  -0.012620  -0.000345   0.000000   0.000237
     52      -0.000122  -0.042295   0.017048   0.000466  -0.000006  -0.001083
     53      -0.000180  -0.062109   0.025003   0.000682   0.000005  -0.001627
     54      -0.000172  -0.000127   0.000222  -0.000172   0.000001   0.000282
     55      -0.000102   0.000005  -0.000079   0.000019  -0.000001  -0.000212
     56      -0.000131  -0.000003  -0.000095   0.000019  -0.000000  -0.000262
     57       0.003175   0.000025  -0.000064   0.001534   0.000000  -0.000105
     58       0.000805  -0.000031  -0.000000  -0.000045  -0.000000  -0.000043
     59       0.001150  -0.000036  -0.000005   0.000012  -0.000000  -0.000067
     60      -0.004377  -0.000004  -0.000022  -0.001308   0.000000   0.000024
     61      -0.039593   0.000025   0.000076  -0.018033  -0.000001   0.000003
     62      -0.049155   0.000025   0.000095  -0.022354  -0.000000   0.000004
     63       0.416296   0.000404  -0.005621   0.336939   0.000007  -0.000394
     64       0.104842   0.000118  -0.001489   0.087151   0.000002  -0.000103
     65       0.149977   0.000168  -0.002117   0.124223   0.000002  -0.000146
     66      -0.037515   0.001569  -0.011940   0.434550   0.000002  -0.000472
     67       0.014448  -0.000707   0.005385  -0.196304  -0.000000   0.000196
     68       0.016015  -0.000791   0.006064  -0.221236  -0.000002   0.000218
     69       0.044371  -0.000062   0.001563  -0.059607  -0.000001   0.000123
     70       0.333309  -0.000474   0.011117  -0.432096  -0.000007   0.000564
     71       0.414168  -0.000573   0.013808  -0.537029  -0.000011   0.000696
     72       0.000145  -0.001890   0.000748  -0.001713  -0.000001   0.000140
     73      -0.000474  -0.002290   0.000793  -0.000578  -0.000000  -0.000184
     74      -0.000565  -0.002993   0.001055  -0.000756  -0.000001  -0.000194
     75       0.001453  -0.065485  -0.192880  -0.004877  -0.000428  -0.584578
     76       0.000954  -0.045681  -0.131556  -0.003421  -0.000298  -0.394006
     77       0.001505  -0.072059  -0.207855  -0.005408  -0.000450  -0.623012
     78       0.002025  -0.136094  -0.328731  -0.007206   0.000119   0.126101
     79      -0.002825   0.189385   0.457570   0.009990  -0.000164  -0.171645
     80      -0.004079   0.273441   0.660663   0.014424  -0.000238  -0.247572
     81      -0.000028   0.000749  -0.002029  -0.000189   0.001003   0.000881
     82       0.000019  -0.000526   0.000161   0.000072  -0.000494  -0.000169
     83       0.000026  -0.000763   0.000122   0.000097  -0.000112  -0.000202
     84       0.000005  -0.000090   0.000056   0.000005   0.000165   0.000083
     85      -0.000228   0.002173  -0.004777  -0.000639   0.001563   0.000231
     86      -0.000356   0.003402  -0.007480  -0.001001  -0.004125   0.000367
     87       0.000006  -0.000083  -0.000101   0.000005   0.317967  -0.000715
     88      -0.000001   0.000018   0.000032   0.000002  -0.041388   0.000106
     89       0.000018  -0.000221   0.000131   0.000050   0.400357  -0.000926
     90       0.000015  -0.000203   0.000305   0.000056   0.095696  -0.000283
     91       0.000048  -0.000601   0.001078   0.000190   0.403966  -0.001044
     92       0.000027  -0.000342   0.000613   0.000108   0.227883  -0.000592
     93       0.000014  -0.000196   0.000270   0.000055  -0.086801  -0.000127
     94       0.000004  -0.000043   0.000082   0.000016  -0.031917  -0.000038
     95       0.000057  -0.000731   0.001219   0.000237  -0.471803  -0.000507
     96       0.000008  -0.000109  -0.000144   0.000013  -0.334243  -0.000240
     97       0.000017  -0.000226   0.000061   0.000053  -0.372748  -0.000296
     98       0.000007  -0.000084   0.000060   0.000025  -0.142776  -0.000104
     99      -0.001032  -0.347868   0.141400   0.003876  -0.000004  -0.006648
    100       0.001449   0.481009  -0.195064  -0.005233  -0.000001   0.009886
    101       0.002129   0.706527  -0.286518  -0.007681   0.000006   0.014450
    102       0.064384   0.000034  -0.000116   0.027940   0.000001   0.000005
    103       0.440786  -0.000092  -0.000806   0.197154   0.000003   0.000023
    104       0.547962  -0.000114  -0.000999   0.245052   0.000005   0.000027
                102        103        104    
      0       0.000004   0.000014   0.000024
      1       0.000002  -0.000024  -0.000184
      2       0.000002  -0.000027  -0.000231
      3       0.000002   0.000032   0.000287
      4      -0.000002   0.000016   0.000140
      5      -0.000004   0.000022   0.000190
      6       0.000001  -0.000038  -0.000376
      7      -0.000006   0.000015   0.000044
      8      -0.000009   0.000014   0.000036
      9      -0.000003   0.000009  -0.001843
     10       0.000001  -0.000018  -0.000419
     11       0.000000  -0.000024  -0.000615
     12      -0.000001   0.000558   0.032427
     13      -0.000000   0.000716   0.043195
     14      -0.000001   0.000878   0.053003
     15       0.000005  -0.000131   0.000798
     16      -0.000000   0.000000  -0.000754
     17       0.000001  -0.000004  -0.000932
     18       0.000000   0.000141   0.000158
     19       0.000008  -0.000153   0.000141
     20       0.000012  -0.000216   0.000198
     21       0.000103  -0.000332  -0.000086
     22       0.000046   0.000089   0.000021
     23       0.000077   0.000116   0.000020
     24      -0.000057   0.000338   0.000060
     25       0.000023   0.000074   0.000024
     26       0.000032   0.000139   0.000039
     27       0.000107   0.002029  -0.000102
     28       0.000028  -0.000096  -0.000014
     29       0.000050  -0.000019  -0.000027
     30      -0.000167  -0.052087   0.000929
     31       0.000146   0.032144  -0.000517
     32       0.000211   0.044612  -0.000712
     33       0.000415  -0.000297   0.000014
     34      -0.000197  -0.000774  -0.000012
     35      -0.000269  -0.001183  -0.000015
     36       0.000664  -0.000268   0.000013
     37      -0.004535   0.000147  -0.000007
     38      -0.007068   0.000220  -0.000009
     39      -0.035194   0.000161  -0.000006
     40      -0.030664   0.000036  -0.000000
     41      -0.053445   0.000004   0.000006
     42      -0.034763  -0.000072  -0.000002
     43      -0.033452  -0.000133   0.000007
     44      -0.050537  -0.000043   0.000004
     45       0.000007   0.001179  -0.000025
     46       0.000019  -0.000551   0.000010
     47       0.000028  -0.000753   0.000014
     48      -0.000038   0.000351   0.000028
     49       0.000010  -0.000538   0.000024
     50       0.000013  -0.000783   0.000032
     51       0.000020   0.000047  -0.000087
     52      -0.000030   0.000119   0.000009
     53      -0.000045   0.000182   0.000081
     54      -0.000000   0.000021  -0.000849
     55      -0.000001  -0.000004  -0.000764
     56      -0.000001  -0.000001  -0.000987
     57      -0.000002   0.000020   0.000010
     58      -0.000000  -0.000008  -0.000608
     59      -0.000001  -0.000005  -0.000767
     60       0.000002  -0.000030  -0.000176
     61       0.000005  -0.000008   0.000120
     62       0.000006  -0.000007   0.000142
     63      -0.000059   0.000075  -0.000177
     64      -0.000015   0.000010  -0.000028
     65      -0.000022   0.000018  -0.000053
     66      -0.000043   0.000034  -0.000385
     67       0.000020  -0.000007   0.000213
     68       0.000020  -0.000007   0.000250
     69       0.000008   0.000009   0.000757
     70       0.000067  -0.000061   0.000743
     71       0.000081  -0.000080   0.000919
     72       0.000011  -0.007253  -0.427860
     73       0.000007  -0.009498  -0.569761
     74       0.000007  -0.011629  -0.697324
     75      -0.000946   0.000158  -0.000102
     76      -0.000631   0.000139   0.000044
     77      -0.000996   0.000214   0.000106
     78       0.000252  -0.001072   0.000088
     79      -0.000339   0.000564  -0.000098
     80      -0.000485   0.000776  -0.000139
     81       0.002039   0.685761  -0.011442
     82      -0.000234  -0.422899   0.007077
     83      -0.000126  -0.587236   0.009827
     84      -0.005044   0.000314   0.000018
     85       0.057023  -0.000204   0.000033
     86       0.089040  -0.000356   0.000056
     87       0.317336  -0.000510   0.000045
     88      -0.044486   0.000336  -0.000016
     89       0.404374  -0.000080   0.000004
     90       0.097968  -0.001821   0.000021
     91       0.411649  -0.001248   0.000012
     92       0.227433  -0.002045   0.000028
     93       0.086134  -0.000251  -0.000006
     94       0.027264  -0.000517   0.000006
     95       0.464335  -0.001036   0.000007
     96       0.323861  -0.000212   0.000043
     97       0.366450   0.000217   0.000003
     98       0.137410   0.000211  -0.000008
     99      -0.000284   0.000614   0.003067
    100       0.000353  -0.000830  -0.002370
    101       0.000516  -0.001218  -0.003626
    102      -0.000008   0.000006  -0.000110
    103      -0.000057   0.000052  -0.000933
    104      -0.000070   0.000072  -0.001128


-----------
IR SPECTRUM
-----------

 Mode   freq       eps      Int      T**2         TX        TY        TZ
       cm**-1   L/(mol*cm) km/mol    a.u.
----------------------------------------------------------------------------
  6:     27.08   0.000591    2.99  0.006806  ( 0.000463 -0.064013  0.052041)
  7:     36.02   0.001807    9.13  0.015655  ( 0.003385  0.100088 -0.075009)
  8:     63.08   0.000519    2.62  0.002568  (-0.019628  0.032765 -0.033302)
  9:     67.93   0.000538    2.72  0.002472  ( 0.040453  0.028782 -0.002755)
 10:    106.47   0.000433    2.19  0.001268  (-0.005650 -0.030658  0.017216)
 11:    145.28   0.000647    3.27  0.001389  ( 0.036550 -0.001171  0.007200)
 12:    157.81   0.000009    0.05  0.000018  (-0.003206  0.002416 -0.001228)
 13:    222.67   0.000005    0.03  0.000007  ( 0.001472 -0.002199 -0.000672)
 14:    255.29   0.000010    0.05  0.000012  (-0.000095 -0.003522 -0.000052)
 15:    261.39   0.001820    9.20  0.002172  (-0.001640 -0.036159  0.029365)
 16:    276.12   0.001538    7.77  0.001738  (-0.002090 -0.034685  0.023033)
 17:    294.14   0.000190    0.96  0.000202  (-0.007017  0.001441 -0.012265)
 18:    366.08   0.001797    9.08  0.001532  ( 0.002154 -0.036934  0.012765)
 19:    371.71   0.002690   13.59  0.002258  (-0.025337  0.017939  0.035975)
 20:    415.34   0.000018    0.09  0.000014  (-0.001815 -0.003066 -0.001093)
 21:    455.91   0.001022    5.17  0.000700  (-0.001879  0.020051 -0.017148)
 22:    465.45   0.001212    6.12  0.000812  (-0.001269 -0.023018  0.016759)
 23:    496.86   0.002200   11.12  0.001382  ( 0.018921 -0.022257 -0.022989)
 24:    537.16   0.000124    0.62  0.000072  ( 0.000408 -0.008453  0.000397)
 25:    552.71   0.024371  123.16  0.013760  ( 0.003825 -0.088442  0.076966)
 26:    562.37   0.026108  131.94  0.014487  (-0.003773 -0.099527  0.067583)
 27:    568.85   0.003078   15.56  0.001689  (-0.039479 -0.010975  0.003106)
 28:    585.10   0.000440    2.22  0.000234  (-0.014550  0.000691 -0.004714)
 29:    599.77   0.000830    4.19  0.000432  (-0.000778 -0.016267  0.012899)
 30:    634.75   0.000207    1.05  0.000102  ( 0.008525  0.000123 -0.005399)
 31:    642.04   0.005409   27.34  0.002629  (-0.000516  0.041308 -0.030375)
 32:    667.74   0.000371    1.87  0.000173  (-0.011807 -0.003133 -0.004901)
 33:    707.85   0.000200    1.01  0.000088  ( 0.009187 -0.001936 -0.000217)
 34:    740.40   0.000072    0.36  0.000030  ( 0.000040 -0.003546  0.004192)
 35:    754.18   0.001195    6.04  0.000495  (-0.001066 -0.015811  0.015603)
 36:    769.59   0.020132  101.74  0.008163  ( 0.002685  0.071345 -0.055371)
 37:    786.97   0.000938    4.74  0.000372  ( 0.019134  0.002356  0.000539)
 38:    796.17   0.000000    0.00  0.000000  ( 0.000207  0.000150 -0.000118)
 39:    802.64   0.000765    3.87  0.000297  (-0.001449 -0.013706  0.010367)
 40:    819.76   0.000025    0.12  0.000009  (-0.001248 -0.000629  0.002728)
 41:    821.62   0.002384   12.05  0.000906  ( 0.001129  0.025394 -0.016109)
 42:    854.58   0.004937   24.95  0.001803  (-0.004873 -0.035085  0.023411)
 43:    860.42   0.007944   40.15  0.002881  ( 0.053547 -0.002644 -0.002649)
 44:    886.54   0.000014    0.07  0.000005  ( 0.001008  0.001601 -0.001100)
 45:    910.20   0.000657    3.32  0.000225  (-0.008227 -0.010228 -0.007286)
 46:    911.99   0.000146    0.74  0.000050  ( 0.003200 -0.005597  0.002913)
 47:    914.23   0.013646   68.96  0.004658  ( 0.064818 -0.020005 -0.007507)
 48:    917.62   0.004235   21.40  0.001440  ( 0.018304  0.024289 -0.022700)
 49:    937.10   0.001239    6.26  0.000413  (-0.002130 -0.009692 -0.017721)
 50:    967.40   0.000548    2.77  0.000177  (-0.000978 -0.010521  0.008074)
 51:    990.61   0.003443   17.40  0.001085  (-0.027923 -0.009227 -0.014827)
 52:    997.09   0.000014    0.07  0.000004  (-0.001162  0.001668  0.000478)
 53:   1010.40   0.000003    0.01  0.000001  ( 0.000790  0.000394  0.000018)
 54:   1017.21   0.000657    3.32  0.000201  (-0.012956  0.003226  0.004818)
 55:   1024.16   0.004619   23.34  0.001407  (-0.037211 -0.001559 -0.004509)
 56:   1043.07   0.011061   55.90  0.003309  ( 0.048322  0.016332  0.026596)
 57:   1060.26   0.002999   15.16  0.000883  ( 0.026402  0.004429  0.012884)
 58:   1070.87   0.001308    6.61  0.000381  (-0.004601 -0.017069  0.008286)
 59:   1095.53   0.000050    0.25  0.000014  (-0.001139 -0.001700 -0.003191)
 60:   1117.14   0.000355    1.79  0.000099  ( 0.000578  0.008491 -0.005175)
 61:   1120.33   0.001149    5.81  0.000320  ( 0.000988  0.011291  0.013841)
 62:   1128.33   0.005298   26.77  0.001465  (-0.030762  0.013904  0.018045)
 63:   1148.76   0.000236    1.19  0.000064  (-0.006787  0.002840  0.003176)
 64:   1181.11   0.000106    0.54  0.000028  ( 0.000055 -0.004582  0.002642)
 65:   1208.08   0.001499    7.58  0.000387  ( 0.019426  0.001854  0.002532)
 66:   1228.88   0.001534    7.75  0.000390  (-0.016047 -0.006411 -0.009534)
 67:   1247.34   0.002066   10.44  0.000517  (-0.020908  0.004379  0.007786)
 68:   1251.98   0.000901    4.56  0.000225  (-0.004394 -0.008615 -0.011452)
 69:   1263.75   0.003274   16.54  0.000808  ( 0.023616  0.009364  0.012767)
 70:   1282.68   0.001280    6.47  0.000312  (-0.016805 -0.003404 -0.004188)
 71:   1307.99   0.028464  143.84  0.006791  (-0.082139 -0.000482 -0.006620)
 72:   1329.41   0.004418   22.33  0.001037  ( 0.018737  0.013484  0.022457)
 73:   1344.75   0.006143   31.04  0.001426  (-0.023717  0.018376  0.022921)
 74:   1361.36   0.019948  100.81  0.004573  (-0.066267 -0.004325 -0.012752)
 75:   1391.08   0.011558   58.41  0.002593  ( 0.045159 -0.017436 -0.015794)
 76:   1420.77   0.009983   50.45  0.002193  ( 0.018986 -0.024865 -0.034843)
 77:   1438.61   0.019942  100.78  0.004326  (-0.004107  0.029913  0.058430)
 78:   1441.82   0.030364  153.45  0.006572  ( 0.006055 -0.054628 -0.059591)
 79:   1450.02   0.000772    3.90  0.000166  (-0.001112  0.005976  0.011363)
 80:   1469.14   0.042542  214.99  0.009036  ( 0.093373  0.007122  0.016349)
 81:   1479.01   0.002579   13.03  0.000544  ( 0.023144 -0.001925 -0.002181)
 82:   1490.19   0.002692   13.60  0.000564  (-0.016746 -0.010965 -0.012769)
 83:   1495.36   0.041040  207.40  0.008564  (-0.088865 -0.012589 -0.022561)
 84:   1523.06   0.000289    1.46  0.000059  (-0.000979 -0.005059 -0.005717)
 85:   1584.80   0.059742  301.91  0.011764  (-0.108329  0.000353 -0.005344)
 86:   1597.69   0.012020   60.75  0.002348  (-0.046804 -0.005635 -0.011202)
 87:   1634.00   0.001079    5.45  0.000206  ( 0.010473 -0.006152 -0.007646)
 88:   1639.02   0.000974    4.92  0.000185  (-0.010570 -0.004587 -0.007256)
 89:   1676.30   0.001413    7.14  0.000263  (-0.011846  0.007068  0.008535)
 90:   1683.73   0.021557  108.94  0.003995  (-0.063188  0.001257 -0.001071)
 91:   3121.07   0.002736   13.83  0.000274  (-0.000975 -0.013961  0.008817)
 92:   3125.04   0.001447    7.31  0.000145  ( 0.011201 -0.002994 -0.003177)
 93:   3174.13   0.000301    1.52  0.000030  ( 0.004568  0.001720  0.002403)
 94:   3184.36   0.001448    7.32  0.000142  (-0.010455  0.003826  0.004233)
 95:   3184.98   0.000655    3.31  0.000064  ( 0.004707  0.003354  0.005550)
 96:   3193.09   0.004918   24.85  0.000481  (-0.010048 -0.012051 -0.015311)
 97:   3194.78   0.002229   11.26  0.000218  ( 0.008644 -0.007238 -0.009518)
 98:   3196.32   0.000209    1.05  0.000020  ( 0.002309 -0.002259 -0.003152)
 99:   3199.12   0.003564   18.01  0.000348  (-0.017814  0.003900  0.003888)
100:   3214.86   0.000036    0.18  0.000003  ( 0.000122  0.001608 -0.000930)
101:   3215.62   0.000582    2.94  0.000057  (-0.004934  0.003188  0.004692)
102:   3224.42   0.001717    8.68  0.000166  (-0.006811 -0.005674 -0.009359)
103:   3623.90   0.043931  222.01  0.003783  ( 0.048119 -0.022640 -0.030904)
104:   3632.41   0.031853  160.97  0.002737  (-0.022353 -0.030041 -0.036530)

* The epsilon (eps) is given for a Dirac delta lineshape.
** The dipole moment derivative (T) already includes vibrational overlap.

The first frequency considered to be a vibration is 6
The total number of vibrations considered is 99


--------------------------
THERMOCHEMISTRY AT 298.15K
--------------------------

Temperature         ...   298.15 K
Pressure            ...     1.00 atm
Total Mass          ...   274.33 AMU
Quasi RRHO          ...     True
Cut-Off Frequency   ...     1.00 cm^-1

Throughout the following assumptions are being made:
  (1) The electronic state is orbitally nondegenerate
  (2) There are no thermally accessible electronically excited states
  (3) Hindered rotations indicated by low frequency modes are not
      treated as such but are treated as vibrations and this may
      cause some error
  (4) All equations used are the standard statistical mechanics
      equations for an ideal gas
  (5) All vibrations are strictly harmonic

freq.      27.08  E(vib)   ...       0.55 
freq.      36.02  E(vib)   ...       0.54 
freq.      63.08  E(vib)   ...       0.51 
freq.      67.93  E(vib)   ...       0.50 
freq.     106.47  E(vib)   ...       0.45 
freq.     145.28  E(vib)   ...       0.41 
freq.     157.81  E(vib)   ...       0.40 
freq.     222.67  E(vib)   ...       0.33 
freq.     255.29  E(vib)   ...       0.30 
freq.     261.39  E(vib)   ...       0.30 
freq.     276.12  E(vib)   ...       0.28 
freq.     294.14  E(vib)   ...       0.27 
freq.     366.08  E(vib)   ...       0.22 
freq.     371.71  E(vib)   ...       0.21 
freq.     415.34  E(vib)   ...       0.18 
freq.     455.91  E(vib)   ...       0.16 
freq.     465.45  E(vib)   ...       0.16 
freq.     496.86  E(vib)   ...       0.14 
freq.     537.16  E(vib)   ...       0.12 
freq.     552.71  E(vib)   ...       0.12 
freq.     562.37  E(vib)   ...       0.11 
freq.     568.85  E(vib)   ...       0.11 
freq.     585.10  E(vib)   ...       0.11 
freq.     599.77  E(vib)   ...       0.10 
freq.     634.75  E(vib)   ...       0.09 
freq.     642.04  E(vib)   ...       0.09 
freq.     667.74  E(vib)   ...       0.08 
freq.     707.85  E(vib)   ...       0.07 
freq.     740.40  E(vib)   ...       0.06 
freq.     754.18  E(vib)   ...       0.06 
freq.     769.59  E(vib)   ...       0.06 
freq.     786.97  E(vib)   ...       0.05 
freq.     796.17  E(vib)   ...       0.05 
freq.     802.64  E(vib)   ...       0.05 
freq.     819.76  E(vib)   ...       0.05 
freq.     821.62  E(vib)   ...       0.05 
freq.     854.58  E(vib)   ...       0.04 
freq.     860.42  E(vib)   ...       0.04 
freq.     886.54  E(vib)   ...       0.04 
freq.     910.20  E(vib)   ...       0.03 
freq.     911.99  E(vib)   ...       0.03 
freq.     914.23  E(vib)   ...       0.03 
freq.     917.62  E(vib)   ...       0.03 
freq.     937.10  E(vib)   ...       0.03 
freq.     967.40  E(vib)   ...       0.03 
freq.     990.61  E(vib)   ...       0.02 
freq.     997.09  E(vib)   ...       0.02 
freq.    1010.40  E(vib)   ...       0.02 
freq.    1017.21  E(vib)   ...       0.02 
freq.    1024.16  E(vib)   ...       0.02 
freq.    1043.07  E(vib)   ...       0.02 
freq.    1060.26  E(vib)   ...       0.02 
freq.    1070.87  E(vib)   ...       0.02 
freq.    1095.53  E(vib)   ...       0.02 
freq.    1117.14  E(vib)   ...       0.01 
freq.    1120.33  E(vib)   ...       0.01 
freq.    1128.33  E(vib)   ...       0.01 
freq.    1148.76  E(vib)   ...       0.01 
freq.    1181.11  E(vib)   ...       0.01 
freq.    1208.08  E(vib)   ...       0.01 
freq.    1228.88  E(vib)   ...       0.01 
freq.    1247.34  E(vib)   ...       0.01 
freq.    1251.98  E(vib)   ...       0.01 
freq.    1263.75  E(vib)   ...       0.01 
freq.    1282.68  E(vib)   ...       0.01 
freq.    1307.99  E(vib)   ...       0.01 
freq.    1329.41  E(vib)   ...       0.01 
freq.    1344.75  E(vib)   ...       0.01 
freq.    1361.36  E(vib)   ...       0.01 
freq.    1391.08  E(vib)   ...       0.00 
freq.    1420.77  E(vib)   ...       0.00 
freq.    1438.61  E(vib)   ...       0.00 
freq.    1441.82  E(vib)   ...       0.00 
freq.    1450.02  E(vib)   ...       0.00 
freq.    1469.14  E(vib)   ...       0.00 
freq.    1479.01  E(vib)   ...       0.00 
freq.    1490.19  E(vib)   ...       0.00 
freq.    1495.36  E(vib)   ...       0.00 
freq.    1523.06  E(vib)   ...       0.00 
freq.    1584.80  E(vib)   ...       0.00 
freq.    1597.69  E(vib)   ...       0.00 
freq.    1634.00  E(vib)   ...       0.00 
freq.    1639.02  E(vib)   ...       0.00 
freq.    1676.30  E(vib)   ...       0.00 
freq.    1683.73  E(vib)   ...       0.00 
freq.    3121.07  E(vib)   ...       0.00 
freq.    3125.04  E(vib)   ...       0.00 
freq.    3174.13  E(vib)   ...       0.00 
freq.    3184.36  E(vib)   ...       0.00 
freq.    3184.98  E(vib)   ...       0.00 
freq.    3193.09  E(vib)   ...       0.00 
freq.    3194.78  E(vib)   ...       0.00 
freq.    3196.32  E(vib)   ...       0.00 
freq.    3199.12  E(vib)   ...       0.00 
freq.    3214.86  E(vib)   ...       0.00 
freq.    3215.62  E(vib)   ...       0.00 
freq.    3224.42  E(vib)   ...       0.00 
freq.    3623.90  E(vib)   ...       0.00 
freq.    3632.41  E(vib)   ...       0.00 

------------
INNER ENERGY
------------

The inner energy is: U= E(el) + E(ZPE) + E(vib) + E(rot) + E(trans)
    E(el)   - is the total energy from the electronic structure calculation
              = E(kin-el) + E(nuc-el) + E(el-el) + E(nuc-nuc)
    E(ZPE)  - the the zero temperature vibrational energy from the frequency calculation
    E(vib)  - the the finite temperature correction to E(ZPE) due to population
              of excited vibrational states
    E(rot)  - is the rotational thermal energy
    E(trans)- is the translational thermal energy

Summary of contributions to the inner energy U:
Electronic energy                ...   -874.20454073 Eh
Zero point energy                ...      0.27958626 Eh     175.44 kcal/mol
Thermal vibrational correction   ...      0.01275314 Eh       8.00 kcal/mol
Thermal rotational correction    ...      0.00141627 Eh       0.89 kcal/mol
Thermal translational correction ...      0.00141627 Eh       0.89 kcal/mol
-----------------------------------------------------------------------
Total thermal energy                   -873.90936879 Eh


Summary of corrections to the electronic energy:
(perhaps to be used in another calculation)
Total thermal correction                  0.01558569 Eh       9.78 kcal/mol
Non-thermal (ZPE) correction              0.27958626 Eh     175.44 kcal/mol
-----------------------------------------------------------------------
Total correction                          0.29517194 Eh     185.22 kcal/mol


--------
ENTHALPY
--------

The enthalpy is H = U + kB*T
                kB is Boltzmann's constant
Total thermal energy              ...   -873.90936879 Eh 
Thermal Enthalpy correction       ...      0.00094421 Eh       0.59 kcal/mol
-----------------------------------------------------------------------
Total Enthalpy                    ...   -873.90842458 Eh


Note: Only C1 symmetry has been detected, increase convergence thresholds 
      if your molecule has a higher symmetry. Symmetry factor of 1.0 is   
      used for the rotational entropy correction. 
 

Note: Rotational entropy computed according to Herzberg 
Infrared and Raman Spectra, Chapter V,1, Van Nostrand Reinhold, 1945 
Point Group:  C1, Symmetry Number:   1  
Rotational constants in cm-1:     0.049302     0.003669     0.003443 

Vibrational entropy computed according to the QRRHO of S. Grimme
Chem.Eur.J. 2012 18 9955 using a reference frequency of 100.0 cm-1


-------
ENTROPY
-------

The entropy contributions are T*S = T*(S(el)+S(vib)+S(rot)+S(trans))
     S(el)   - electronic entropy
     S(vib)  - vibrational entropy
     S(rot)  - rotational entropy
     S(trans)- translational entropy
The entropies will be listed as multiplied by the temperature to get
units of energy

Electronic entropy                ...      0.00000000 Eh      0.00 kcal/mol
Vibrational entropy               ...      0.02177448 Eh     13.66 kcal/mol
Rotational entropy                ...      0.01625651 Eh     10.20 kcal/mol
Translational entropy             ...      0.02030047 Eh     12.74 kcal/mol
-----------------------------------------------------------------------
Final entropy term                ...      0.05833147 Eh     36.60 kcal/mol

In case the symmetry of your molecule has not been determined correctly
or in case you have a reason to use a different symmetry number we print 
out the resulting rotational entropy values for sn=1,12:

 non-linear molecules -----------------------------------
|  sn= 1 | S(rot)=       0.01625651 Eh     10.20 kcal/mol|
|  sn= 2 | S(rot)=       0.01560205 Eh      9.79 kcal/mol|
|  sn= 3 | S(rot)=       0.01521922 Eh      9.55 kcal/mol|
|  sn= 4 | S(rot)=       0.01494760 Eh      9.38 kcal/mol|
|  sn= 5 | S(rot)=       0.01473691 Eh      9.25 kcal/mol|
|  sn= 6 | S(rot)=       0.01456477 Eh      9.14 kcal/mol|
|  sn= 7 | S(rot)=       0.01441922 Eh      9.05 kcal/mol|
|  sn= 8 | S(rot)=       0.01429314 Eh      8.97 kcal/mol|
|  sn= 9 | S(rot)=       0.01418193 Eh      8.90 kcal/mol|
|  sn=10 | S(rot)=       0.01408245 Eh      8.84 kcal/mol|
|  sn=11 | S(rot)=       0.01399246 Eh      8.78 kcal/mol|
|  sn=12 | S(rot)=       0.01391031 Eh      8.73 kcal/mol|
 linear molecules ---------------------------------------
|  Dinfh | S(rot)=       0.01068056 Eh      6.70 kcal/mol|
|  Cinfv | S(rot)=       0.01133501 Eh      7.11 kcal/mol|
 --------------------------------------------------------


-------------------
GIBBS FREE ENERGY
-------------------

The Gibbs free energy is G = H - T*S

Total enthalpy                    ...   -873.90842458 Eh 
Total entropy correction          ...     -0.05833147 Eh    -36.60 kcal/mol
-----------------------------------------------------------------------
Final Gibbs free energy         ...   -873.96675605 Eh

For completeness - the Gibbs free energy minus the electronic energy
G-E(el)                           ...      0.23778468 Eh    149.21 kcal/mol


Maximum memory used throughout the entire PROP-calculation: 199.7 MB

--------------------------------
SUGGESTED CITATIONS FOR THIS RUN
--------------------------------

Below you find a list of papers that are relevant to this ORCA run
We neither can nor want to force you to cite these papers, but we appreciate if you do
You receive ORCA, which is the product of decades of hard work by many enthusiastic individuals, for free
The only thing we kindly ask in return is that you cite our papers,
We deeply appreciate it, if you show your appreciation for ORCA by not just citing the generic ORCA reference.

Please note that relegating all ORCA citations to the supporting information does *not* help us.
SI sections are not indexed - citations you put there will not count into any citation statistics
But we need these citations in order to attract the funding resources that allow us to do what we are doing

Therefore, if you are a happy ORCA user, please consider citing a few of the papers listed below in the main body of your paper

In addition to the list printed below, the program has created the file C:\Users\jabreumiranda\Radioprotection_Pipeline_Project\06_Quantum_DFT_ORCA\CHEMBL4952776_neutral_opt.bibtex that contains the list in bibtex format
You can import this file easily into all common literature databanks and citation aid programs

It goes without saying that in many instances, there are alternative algorithms to achieve similar
results as the ones you have gotten from ORCA. It is, of course, also the case that in some instances
ORCA just re-implements algorithms worked out by others. We are fully aware of that and we are also
fully appreciative of our colleagues work. Hence this citation list should not be read as indicating
that the listed papers, which are focused on our own work, are the only ones worth citing. It simply
meant to make it easier for users to cite ORCA specific papers. It is not a substitute for doing your
own literature research and citing the relevant literature in a scientifically appropriate manner.

List of essential papers. We consider these as the minimum necessary citations

  1. Neese, F.
     Software update: the ORCA program system, version 6.0
     WIRES Comput. Molec. Sci. 2025 15(1), e70019
     doi.org/10.1002/wcms.70019

List of papers to cite with high priority. The work reported in these papers was absolutely
necessary for this run to complete.
Our perspective: the developers of density functionals and basis sets usually get cited in chemistry papers
Good! But without the algorithms to do something with them, the functionals or basis sets would not do anything.
Hence, in our opinion, the algorithm design and method developments papers are equally worthy of getting cited

  1. Neese, F.
     An improvement of the resolution of the identity approximation for the formation of the Coulomb matrix
     J. Comp. Chem. 2003 24(14), 1740-1747
     doi.org/10.1002/jcc.10318
  2. Neese, F.; Wennmohs, F.; Hansen, A.; Becker, U.
     Efficient, approximate and parallel Hartree-Fock and hybrid DFT calculations. A 'chain-of-spheres' algorithm for the Hartree-Fock exchange
     Chem. Phys. 2009 356(1-3), 98-109
     doi.org/10.1016/j.chemphys.2008.10.036
  3. Grimme, S.; Antony, J.; Ehrlich, S.; Krieg, H.
     A consistent and accurate ab initio parametrization of density functional dispersion correction (DFT-D) for the 94 elements H-Pu
     J. Chem. Phys. 2010 132 , 154104
     doi.org/10.1063/1.3382344
  4. Grimme, S.; Ehrlich, S.; Goerigk, L.
     Effect of the damping function in dispersion corrected density functional theory
     J. Comput. Chem. 2011 32(7), 1456-1465
     doi.org/10.1002/jcc.21759
  5. Bykov, D.; Petrenko, T.; Izsak, R.; Kossmann, S.; Becker, U.; Valeev, E.; Neese, F.
     Efficient implementation of the analytic second derivatives of Hartree-Fock and hybrid DFT energies: a detailed analysis of different approximations
     Molec. Phys. 2015 113 , 1961-1977
     doi.org/10.1080/00268976.2015.1025114
  6. Garcia-Rates, M.; Neese, F.
     Efficient implementation of the analytical second derivatives of hartree-fock and hybrid DFT energies within the framework of the conductor-like polarizable continuum model
     J. Comput. Chem. 2019 40 , 1816-1828
     doi.org/10.1002/jcc.25833
  7. Garcia-Rates, M.; Neese, F.
     Effect of the Solute Cavity on the Solvation Energy and its Derivatives within the Framework of the Gaussian Charge Scheme
     J. Comput. Chem. 2020 41 , 922-939
     doi.org/10.1002/jcc.26139
  8. Helmich-Paris, B.; de Souza, B.; Neese, F.; Izsák, R.
     An improved chain of spheres for exchange algorithm
     J. Chem. Phys. 2021 155(10), 104109
     doi.org/10.1063/5.0058766
  9. Neese, F.
     The SHARK Integral Generation and Digestion System
     J. Comp. Chem. 2022 44(3), 381
     doi.org/10.1002/jcc.26942

List of suggested additional citations. These are papers that are important in the 'surrounding' of 
of this run, or papers that preceded the highly important papers. If you like your results we are grateful for a citation.

  1. Izsak, R.; Neese, F.
     An overlap fitted chain of spheres exchange method
     J. Chem. Phys. 2011 135 , 144105
     doi.org/10.1063/1.3646921
  2. Izsak, R.; Hansen, A.; Neese, F.
     The resolution of identity and chain of spheres approximations for the LPNO-CCSD singles Fock term
     Molec. Phys. 2012 110 , 2413-2417
     doi.org/10.1080/00268976.2012.687466
  3. Neese, F.
     The ORCA program system
     WIRES Comput. Molec. Sci. 2012 2(1), 73-78
     doi.org/10.1002/wcms.81
  4. Izsak, R.; Neese, F.; Klopper, W.
     Robust fitting techniques in the chain of spheres approximation to the Fock exchange: The role of the complementary space
     J. Chem. Phys. 2013 139 , 
     doi.org/10.1063/1.4819264
  5. Neese, F.
     Software update: the ORCA program system, version 4.0
     WIRES Comput. Molec. Sci. 2018 8(1), 1-6
     doi.org/10.1002/wcms.1327
  6. Neese, F.; Wennmohs, F.; Becker, U.; Riplinger, C.
     The ORCA quantum chemistry program package
     J. Chem. Phys. 2020 152(22), 224108
     doi.org/10.1063/5.0004608
  7. Neese, F.
     Software update: The ORCA program system—Version 5.0
     WIRES Comput. Molec. Sci. 2022 12(1), e1606
     doi.org/10.1002/wcms.1606

List of optional additional citations

  1. Neese, F.
     Approximate second-order SCF convergence for spin unrestricted wavefunctions
     Chem. Phys. Lett. 2000 325(1-3), 93-98
     doi.org/10.1016/s0009-2614(00)00662-x

Timings for individual modules:

Sum of individual times          ...     5368.663 sec (=  89.478 min)
Startup calculation              ...       43.432 sec (=   0.724 min)   0.8 %
SCF iterations                   ...     1417.005 sec (=  23.617 min)  26.4 %
Property integrals               ...      647.274 sec (=  10.788 min)  12.1 %
SCF Response                     ...      924.682 sec (=  15.411 min)  17.2 %
Property calculations            ...     1434.463 sec (=  23.908 min)  26.7 %
SCF Gradient evaluation          ...      901.530 sec (=  15.026 min)  16.8 %
Geometry relaxation              ...        0.277 sec (=   0.005 min)   0.0 %
                             ****ORCA TERMINATED NORMALLY****
TOTAL RUN TIME: 0 days 1 hours 29 minutes 31 seconds 372 msec
