32
Coordinates from ORCA-job C:\Users\jabreumiranda\Radioprotection_Pipeline_Project\06_Quantum_DFT_ORCA\CHEMBL247484_neutral_opt E -1102.899199519026
  O      -1.961500     -2.394800     -2.283900
  C      -1.544800     -1.539600     -1.510600
  C      -0.105800     -1.310700     -1.317000
  C       0.290900     -0.367100     -0.450600
  C       1.720400     -0.080600     -0.217200
  C       2.653000     -1.119200     -0.032700
  C       3.999200     -0.826900      0.195300
  O       4.907900     -1.831200      0.373100
  C       4.422900      0.496000      0.246100
  O       5.737400      0.803500      0.467200
  C       3.504900      1.529600      0.075900
  O       3.974300      2.814100      0.141100
  C       2.159800      1.253300     -0.151800
  O      -0.573000      0.437100      0.277000
  C      -1.924600      0.252000      0.124400
  C      -2.766900      1.069700      0.876900
  C      -4.146800      0.925500      0.759000
  O      -4.934300      1.745400      1.511900
  C      -4.700400     -0.022300     -0.098000
  C      -3.853900     -0.836400     -0.846900
  O      -4.449900     -1.750300     -1.673500
  C      -2.465900     -0.700200     -0.736600
  H       0.568600     -1.921100     -1.903600
  H       2.324400     -2.154500     -0.054900
  H       4.458500     -2.689000      0.339700
  H       5.771200      1.779000      0.461000
  H       3.225300      3.423100      0.021800
  H       1.448900      2.064000     -0.285800
  H      -2.355100      1.814000      1.552700
  H      -5.867100      1.531600      1.338900
  H      -5.774900     -0.140900     -0.195800
  H      -3.742700     -2.253200     -2.138300
32
Coordinates from ORCA-job C:\Users\jabreumiranda\Radioprotection_Pipeline_Project\06_Quantum_DFT_ORCA\CHEMBL247484_neutral_opt E -1102.907814328270
  O      -1.983491     -2.516164     -2.244162
  C      -1.563578     -1.629958     -1.482498
  C      -0.135040     -1.382278     -1.291817
  C       0.284639     -0.405776     -0.452175
  C       1.703556     -0.092100     -0.206182
  C       2.654750     -1.120049     -0.092551
  C       4.003372     -0.816366      0.129337
  O       4.950177     -1.785344      0.246883
  C       4.408936      0.517894      0.244592
  O       5.720661      0.825529      0.461699
  C       3.457174      1.541549      0.141246
  O       3.934764      2.813184      0.265608
  C       2.111150      1.248004     -0.078995
  O      -0.567934      0.411057      0.236085
  C      -1.917340      0.248814      0.096546
  C      -2.733105      1.112823      0.824388
  C      -4.121826      0.982524      0.715044
  O      -4.882681      1.842208      1.435203
  C      -4.696888      0.002711     -0.107919
  C      -3.867742     -0.857220     -0.830947
  O      -4.449452     -1.788444     -1.614224
  C      -2.463878     -0.743728     -0.736214
  H       0.551751     -2.008731     -1.857787
  H       2.344810     -2.164727     -0.166372
  H       4.531671     -2.655712      0.173152
  H       5.768306      1.796461      0.511473
  H       3.199458      3.440425      0.195049
  H       1.379576      2.054632     -0.160845
  H      -2.300813      1.878460      1.469705
  H      -5.820567      1.648869      1.279339
  H      -5.779917     -0.102344     -0.195760
  H      -3.720501     -2.296305     -2.042101
32
Coordinates from ORCA-job C:\Users\jabreumiranda\Radioprotection_Pipeline_Project\06_Quantum_DFT_ORCA\CHEMBL247484_neutral_opt E -1102.911100973757
  O      -2.016949     -2.642209     -2.130353
  C      -1.580901     -1.704472     -1.425378
  C      -0.164221     -1.456072     -1.237303
  C       0.282374     -0.441628     -0.442451
  C       1.692955     -0.106971     -0.196459
  C       2.665587     -1.119234     -0.177434
  C       4.012870     -0.803462      0.036655
  O       4.998340     -1.732641      0.074107
  C       4.394601      0.535641      0.236040
  O       5.698955      0.842452      0.444418
  C       3.410594      1.543226      0.221482
  O       3.889005      2.800273      0.421577
  C       2.067451      1.232731      0.011126
  O      -0.564539      0.397840      0.194187
  C      -1.914187      0.258954      0.068370
  C      -2.708665      1.171211      0.754593
  C      -4.103772      1.047475      0.650942
  O      -4.847390      1.946378      1.324364
  C      -4.690666      0.028563     -0.123764
  C      -3.875825     -0.878387     -0.806837
  O      -4.436040     -1.840389     -1.545450
  C      -2.459256     -0.777734     -0.720875
  H       0.533041     -2.105836     -1.766659
  H       2.379267     -2.164984     -0.315463
  H       4.615640     -2.613166     -0.058583
  H       5.757754      1.805796      0.562813
  H       3.164086      3.443697      0.415063
  H       1.318585      2.027755      0.000154
  H      -2.262495      1.961870      1.358627
  H      -5.790818      1.768897      1.183546
  H      -5.776610     -0.065956     -0.202736
  H      -3.688771     -2.359718     -1.943519
32
Coordinates from ORCA-job C:\Users\jabreumiranda\Radioprotection_Pipeline_Project\06_Quantum_DFT_ORCA\CHEMBL247484_neutral_opt E -1102.911909853612
  O      -2.035558     -2.713714     -2.019025
  C      -1.587057     -1.771927     -1.321634
  C      -0.174569     -1.515141     -1.156518
  C       0.283050     -0.464590     -0.410989
  C       1.692220     -0.119777     -0.179835
  C       2.684014     -1.110479     -0.270565
  C       4.029957     -0.785201     -0.074850
  O       5.037315     -1.688211     -0.135617
  C       4.393506      0.545113      0.214097
  O       5.695167      0.855568      0.403487
  C       3.389409      1.530940      0.306863
  O       3.856837      2.776615      0.584295
  C       2.047042      1.208593      0.117149
  O      -0.567025      0.402573      0.182134
  C      -1.918131      0.273725      0.057265
  C      -2.709225      1.229514      0.683276
  C      -4.105397      1.109749      0.567251
  O      -4.850255      2.047233      1.180002
  C      -4.690355      0.053338     -0.157378
  C      -3.878053     -0.898265     -0.777748
  O      -4.423464     -1.905200     -1.462060
  C      -2.458458     -0.802400     -0.679629
  H       0.527714     -2.181883     -1.657391
  H       2.415928     -2.149376     -0.475415
  H       4.673941     -2.565808     -0.330255
  H       5.752990      1.807089      0.595334
  H       3.129560      3.414131      0.650342
  H       1.286101      1.987519      0.190025
  H      -2.262171      2.048370      1.246810
  H      -5.794774      1.874675      1.038341
  H      -5.776272     -0.035023     -0.241123
  H      -3.663988     -2.457851     -1.801841
32
Coordinates from ORCA-job C:\Users\jabreumiranda\Radioprotection_Pipeline_Project\06_Quantum_DFT_ORCA\CHEMBL247484_neutral_opt E -1102.912427107156
  O      -2.054118     -2.843283     -1.789982
  C      -1.591550     -1.826559     -1.212907
  C      -0.181361     -1.576133     -1.056976
  C       0.284632     -0.474415     -0.390299
  C       1.693367     -0.126370     -0.171794
  C       2.699818     -1.086234     -0.382811
  C       4.043680     -0.755046     -0.201565
  O       5.064711     -1.628250     -0.373759
  C       4.395370      0.552546      0.193347
  O       5.695180      0.864274      0.367692
  C       3.379198      1.507436      0.405182
  O       3.836124      2.732780      0.775570
  C       2.037592      1.177283      0.230967
  O      -0.570649      0.433643      0.138465
  C      -1.923827      0.305309      0.021974
  C      -2.714963      1.300491      0.581672
  C      -4.111282      1.167617      0.473474
  O      -4.861573      2.139148      1.022355
  C      -4.692435      0.065981     -0.181436
  C      -3.880997     -0.921403     -0.740204
  O      -4.412837     -1.967024     -1.375316
  C      -2.459995     -0.816864     -0.640710
  H       0.525126     -2.279935     -1.496118
  H       2.447162     -2.109292     -0.666576
  H       4.714244     -2.491319     -0.643125
  H       5.754024      1.794596      0.644961
  H       3.106737      3.354400      0.919732
  H       1.270322      1.933927      0.396593
  H      -2.269228      2.155119      1.089714
  H      -5.806256      1.958284      0.891890
  H      -5.778257     -0.023286     -0.261730
  H      -3.637959     -2.517520     -1.703478
32
Coordinates from ORCA-job C:\Users\jabreumiranda\Radioprotection_Pipeline_Project\06_Quantum_DFT_ORCA\CHEMBL247484_neutral_opt E -1102.912694193290
  O      -2.054627     -2.847629     -1.783094
  C      -1.592640     -1.830965     -1.207517
  C      -0.180061     -1.585302     -1.051964
  C       0.285084     -0.475302     -0.400493
  C       1.694451     -0.127551     -0.185432
  C       2.706685     -1.079132     -0.412054
  C       4.048809     -0.746066     -0.222647
  O       5.070623     -1.615819     -0.412885
  C       4.395815      0.553620      0.197572
  O       5.695373      0.869186      0.380497
  C       3.377757      1.499677      0.426391
  O       3.824442      2.719682      0.827459
  C       2.037271      1.168791      0.242253
  O      -0.567704      0.443997      0.116174
  C      -1.920880      0.310677      0.006232
  C      -2.710997      1.314458      0.553285
  C      -4.106476      1.181883      0.451486
  O      -4.854959      2.164066      0.986822
  C      -4.691838      0.070454     -0.181036
  C      -3.883014     -0.928080     -0.723862
  O      -4.423552     -1.989810     -1.326042
  C      -2.462987     -0.818557     -0.636669
  H       0.521874     -2.298059     -1.481438
  H       2.460686     -2.097646     -0.716246
  H       4.721090     -2.473672     -0.698390
  H       5.745353      1.794485      0.675932
  H       3.087623      3.329769      0.982415
  H       1.267728      1.919388      0.423341
  H      -2.263736      2.177412      1.045832
  H      -5.799108      1.978252      0.861884
  H      -5.778051     -0.019782     -0.252547
  H      -3.650032     -2.562523     -1.620461
32
Coordinates from ORCA-job C:\Users\jabreumiranda\Radioprotection_Pipeline_Project\06_Quantum_DFT_ORCA\CHEMBL247484_neutral_opt E -1102.912793525030
  O      -2.059078     -2.874043     -1.737525
  C      -1.596250     -1.856846     -1.164995
  C      -0.181668     -1.607862     -1.025319
  C       0.284846     -0.484177     -0.399817
  C       1.694721     -0.132162     -0.194250
  C       2.714825     -1.070658     -0.443905
  C       4.055131     -0.732275     -0.251735
  O       5.079913     -1.593311     -0.467067
  C       4.395848      0.558985      0.195637
  O       5.694795      0.881520      0.381895
  C       3.373628      1.491881      0.448076
  O       3.809184      2.705813      0.879578
  C       2.034471      1.156655      0.258828
  O      -0.564266      0.447287      0.101291
  C      -1.917110      0.311122     -0.002374
  C      -2.704914      1.326895      0.527228
  C      -4.099833      1.197098      0.429166
  O      -4.845262      2.191732      0.947964
  C      -4.690502      0.078069     -0.184220
  C      -3.884820     -0.932053     -0.711309
  O      -4.432492     -1.997844     -1.300861
  C      -2.466152     -0.826315     -0.622675
  H       0.514263     -2.333448     -1.441116
  H       2.478546     -2.083836     -0.772219
  H       4.732973     -2.446181     -0.769375
  H       5.734549      1.800465      0.698032
  H       3.064403      3.301997      1.050135
  H       1.261475      1.898499      0.459838
  H      -2.255381      2.197522      1.004110
  H      -5.789009      2.003141      0.825611
  H      -5.777074     -0.007874     -0.254460
  H      -3.659760     -2.569898     -1.599370
32
Coordinates from ORCA-job C:\Users\jabreumiranda\Radioprotection_Pipeline_Project\06_Quantum_DFT_ORCA\CHEMBL247484_neutral_opt E -1102.912861065450
  O      -2.064354     -2.902682     -1.682476
  C      -1.598990     -1.870753     -1.137945
  C      -0.184740     -1.624010     -0.998590
  C       0.284554     -0.487088     -0.398347
  C       1.694258     -0.133277     -0.195400
  C       2.718262     -1.058601     -0.477695
  C       4.058020     -0.719034     -0.286171
  O       5.085365     -1.568065     -0.533640
  C       4.396476      0.561174      0.194126
  O       5.694982      0.884644      0.379936
  C       3.371414      1.481549      0.478271
  O       3.804006      2.685742      0.938777
  C       2.032636      1.145015      0.288194
  O      -0.563886      0.456370      0.079771
  C      -1.916597      0.319360     -0.018850
  C      -2.703239      1.345976      0.491730
  C      -4.098350      1.213628      0.399158
  O      -4.843088      2.218103      0.899800
  C      -4.690623      0.082060     -0.190011
  C      -3.885962     -0.938864     -0.698200
  O      -4.432793     -2.018380     -1.262526
  C      -2.467401     -0.830083     -0.614779
  H       0.509098     -2.363354     -1.393379
  H       2.487898     -2.063270     -0.835227
  H       4.740679     -2.413670     -0.858278
  H       5.732503      1.794378      0.721917
  H       3.057515      3.273370      1.130132
  H       1.258528      1.878571      0.513562
  H      -2.253012      2.226095      0.950245
  H      -5.786882      2.025780      0.783259
  H      -5.777516     -0.004792     -0.255060
  H      -3.658758     -2.595992     -1.547505
32
Coordinates from ORCA-job C:\Users\jabreumiranda\Radioprotection_Pipeline_Project\06_Quantum_DFT_ORCA\CHEMBL247484_neutral_opt E -1102.912915169634
  O      -2.073644     -2.989563     -1.497419
  C      -1.604520     -1.920160     -1.031250
  C      -0.191296     -1.675074     -0.894121
  C       0.283675     -0.500189     -0.374607
  C       1.692894     -0.138358     -0.185845
  C       2.724039     -1.014405     -0.579265
  C       4.063450     -0.669419     -0.400805
  O       5.094837     -1.470811     -0.762493
  C       4.399409      0.569012      0.181625
  O       5.697622      0.898507      0.354036
  C       3.368972      1.442256      0.574264
  O       3.796281      2.609976      1.124236
  C       2.030365      1.100637      0.392557
  O      -0.564172      0.476181      0.030227
  C      -1.916228      0.337395     -0.058491
  C      -2.700598      1.397531      0.383540
  C      -4.095920      1.262593      0.296292
  O      -4.838784      2.299591      0.729798
  C      -4.691637      0.096615     -0.219870
  C      -3.889120     -0.958361     -0.658829
  O      -4.434433     -2.072804     -1.150826
  C      -2.470728     -0.845763     -0.580695
  H       0.496313     -2.453486     -1.219033
  H       2.506639     -1.982546     -1.033014
  H       4.752995     -2.286931     -1.158310
  H       5.731410      1.774378      0.775789
  H       3.046239      3.164636      1.386840
  H       1.255166      1.801212      0.702718
  H      -2.249408      2.304483      0.785346
  H      -5.782604      2.100893      0.623533
  H      -5.779025      0.010919     -0.279872
  H      -3.658189     -2.669044     -1.391254
32
Coordinates from ORCA-job C:\Users\jabreumiranda\Radioprotection_Pipeline_Project\06_Quantum_DFT_ORCA\CHEMBL247484_neutral_opt E -1102.912953085261
  O      -2.065784     -2.962977     -1.558436
  C      -1.600416     -1.904406     -1.066125
  C      -0.186978     -1.657231     -0.925028
  C       0.284045     -0.493603     -0.379284
  C       1.693271     -0.134705     -0.185572
  C       2.719955     -1.029348     -0.544735
  C       4.060591     -0.687725     -0.364251
  O       5.090052     -1.506848     -0.689991
  C       4.398658      0.565593      0.183821
  O       5.697604      0.892633      0.356774
  C       3.370443      1.456352      0.543618
  O       3.801407      2.636489      1.063561
  C       2.031224      1.117201      0.362958
  O      -0.564852      0.472391      0.048343
  C      -1.916944      0.332858     -0.044884
  C      -2.703366      1.381384      0.419824
  C      -4.098626      1.246543      0.329547
  O      -4.842656      2.272252      0.786833
  C      -4.691602      0.091494     -0.213125
  C      -3.886935     -0.951795     -0.674693
  O      -4.432092     -2.055152     -1.191688
  C      -2.468413     -0.840270     -0.593556
  H       0.503461     -2.425170     -1.269098
  H       2.495587     -2.009239     -0.969325
  H       4.745834     -2.334035     -1.060002
  H       5.733786      1.781939      0.749233
  H       3.053100      3.203133      1.304943
  H       1.256527      1.829044      0.648439
  H      -2.253610      2.279775      0.841909
  H      -5.786611      2.075806      0.677623
  H      -5.778628      0.003814     -0.276056
  H      -3.658032     -2.646300     -1.446776
32
Coordinates from ORCA-job C:\Users\jabreumiranda\Radioprotection_Pipeline_Project\06_Quantum_DFT_ORCA\CHEMBL247484_neutral_opt E -1102.912963490932
  O      -2.065365     -2.966556     -1.552648
  C      -1.600578     -1.907913     -1.060612
  C      -0.186835     -1.660800     -0.918656
  C       0.284225     -0.496151     -0.375515
  C       1.693768     -0.136368     -0.182996
  C       2.720653     -1.028421     -0.547630
  C       4.061368     -0.685246     -0.369360
  O       5.091321     -1.501767     -0.700159
  C       4.398522      0.566973      0.181592
  O       5.697379      0.896390      0.351137
  C       3.369652      1.454650      0.547573
  O       3.799919      2.633605      1.070769
  C       2.030574      1.113869      0.369792
  O      -0.564486      0.471354      0.049322
  C      -1.916624      0.332210     -0.044623
  C      -2.702739      1.382089      0.417175
  C      -4.098067      1.248691      0.325504
  O      -4.841103      2.276411      0.779743
  C      -4.691316      0.093394     -0.216107
  C      -3.886841     -0.951311     -0.674530
  O      -4.433140     -2.054697     -1.190484
  C      -2.468253     -0.841473     -0.592205
  H       0.502322     -2.431121     -1.259432
  H       2.496283     -2.006447     -0.975843
  H       4.747157     -2.328917     -1.070348
  H       5.733024      1.785761      0.743518
  H       3.050989      3.198105      1.315319
  H       1.255248      1.822740      0.660746
  H      -2.252690      2.280892      0.838073
  H      -5.785331      2.081582      0.670318
  H      -5.778257      0.006158     -0.280723
  H      -3.660777     -2.647787     -1.443910
32
Coordinates from ORCA-job C:\Users\jabreumiranda\Radioprotection_Pipeline_Project\06_Quantum_DFT_ORCA\CHEMBL247484_neutral_opt E -1102.912971699736
  O      -2.064706     -2.981190     -1.522458
  C      -1.600857     -1.918041     -1.040320
  C      -0.186814     -1.670444     -0.897555
  C       0.284458     -0.499856     -0.368190
  C       1.694358     -0.138064     -0.179119
  C       2.721416     -1.021074     -0.564128
  C       4.062300     -0.675953     -0.389682
  O       5.092790     -1.483488     -0.740395
  C       4.398558      0.569190      0.177419
  O       5.697340      0.901494      0.342002
  C       3.369020      1.447500      0.564042
  O       3.798802      2.619652      1.102787
  C       2.029962      1.104978      0.390295
  O      -0.564237      0.473027      0.044645
  C      -1.916411      0.333751     -0.049313
  C      -2.702153      1.388889      0.400454
  C      -4.097600      1.256794      0.307611
  O      -4.839237      2.290316      0.750405
  C      -4.691113      0.097051     -0.223796
  C      -3.886773     -0.952967     -0.669781
  O      -4.434502     -2.060659     -1.175342
  C      -2.468127     -0.844807     -0.586552
  H       0.500208     -2.448284     -1.225142
  H       2.496952     -1.991785     -1.008361
  H       4.748514     -2.307080     -1.118369
  H       5.732638      1.787273      0.742460
  H       3.049302      3.178487      1.358412
  H       1.254039      1.805756      0.698403
  H      -2.251798      2.291361      0.813103
  H      -5.783905      2.096888      0.642566
  H      -5.777915      0.009628     -0.289967
  H      -3.664508     -2.658442     -1.421335
32
Coordinates from ORCA-job C:\Users\jabreumiranda\Radioprotection_Pipeline_Project\06_Quantum_DFT_ORCA\CHEMBL247484_neutral_opt E -1102.912968559685
  O      -2.064547     -2.983434     -1.517078
  C      -1.600744     -1.919088     -1.037609
  C      -0.186746     -1.671074     -0.895365
  C       0.284472     -0.499157     -0.368982
  C       1.694317     -0.137194     -0.180459
  C       2.721275     -1.019196     -0.568138
  C       4.062144     -0.674699     -0.392671
  O       5.092581     -1.481227     -0.745843
  C       4.398501      0.568789      0.177982
  O       5.697313      0.900014      0.344354
  C       3.369154      1.446416      0.566508
  O       3.799259      2.617174      1.108064
  C       2.030012      1.104620      0.391645
  O      -0.564273      0.474542      0.041872
  C      -1.916484      0.334753     -0.051335
  C      -2.702289      1.390574      0.396722
  C      -4.097768      1.257828      0.305015
  O      -4.839513      2.291837      0.746316
  C      -4.691154      0.096860     -0.223817
  C      -3.886719     -0.953799     -0.668107
  O      -4.434418     -2.062743     -1.171072
  C      -2.468079     -0.845105     -0.585794
  H       0.500474     -2.449672     -1.220796
  H       2.496422     -1.988597     -1.015201
  H       4.748254     -2.303932     -1.125668
  H       5.732883      1.784681      0.747212
  H       3.050032      3.176240      1.363938
  H       1.254098      1.804690      0.701406
  H      -2.251960      2.293976      0.807358
  H      -5.784196      2.097837      0.639630
  H      -5.777952      0.008799     -0.289227
  H      -3.664347     -2.660810     -1.416061
32
Coordinates from ORCA-job C:\Users\jabreumiranda\Radioprotection_Pipeline_Project\06_Quantum_DFT_ORCA\CHEMBL247484_neutral_opt E -1102.912956846086
  O      -2.064452     -2.982236     -1.519267
  C      -1.600552     -1.917961     -1.039735
  C      -0.186639     -1.669677     -0.897876
  C       0.284450     -0.497893     -0.371049
  C       1.694228     -0.136186     -0.182275
  C       2.721052     -1.019347     -0.567925
  C       4.061853     -0.675722     -0.390751
  O       5.092239     -1.483139     -0.742016
  C       4.398329      0.567932      0.179471
  O       5.697173      0.897707      0.348310
  C       3.369287      1.447055      0.565160
  O       3.799848      2.618047      1.105852
  C       2.030065      1.106204      0.388571
  O      -0.564319      0.475440      0.040622
  C      -1.916587      0.335183     -0.051951
  C      -2.702491      1.390457      0.397272
  C      -4.097996      1.257017      0.306728
  O      -4.840052      2.290156      0.749366
  C      -4.691171      0.096018     -0.222273
  C      -3.886612     -0.954006     -0.667858
  O      -4.434158     -2.062978     -1.171047
  C      -2.467990     -0.844697     -0.586468
  H       0.501323     -2.447264     -1.224244
  H       2.495533     -1.989079     -1.014112
  H       4.747932     -2.306185     -1.121086
  H       5.733092      1.782503      0.750820
  H       3.051078      3.179085      1.358672
  H       1.254135      1.807292      0.696023
  H      -2.252178      2.293789      0.808074
  H      -5.784698      2.095509      0.643484
  H      -5.777969      0.007282     -0.286855
  H      -3.663753     -2.660407     -1.416834
