33
Coordinates from ORCA-job C:\Users\jabreumiranda\Radioprotection_Pipeline_Project\06_Quantum_DFT_ORCA\CHEMBL511458_neutral_opt E -1178.051388024556
  O          -4.81864022328634      2.47619316302216      0.92932361196303
  C          -4.09034637073695      1.39980106287266      0.57896522607767
  C          -4.70249452291227      0.17318960639243      0.24700101600949
  C          -3.91537107267860     -0.91850185989860     -0.10882893706767
  O          -4.47765846829208     -2.08950641420104     -0.42666447057132
  C          -2.49504606476227     -0.78681325916200     -0.13437226418222
  C          -1.91982572601102      0.45543070895292      0.20327643170900
  C          -2.69588601441374      1.55478621788627      0.56043550703742
  O          -0.57596491749261      0.60415387339916      0.18716785413123
  C           0.29020047093619     -0.40137471851485     -0.14243748139507
  C           1.69142987434147      0.01709836894508     -0.07476859775801
  C           1.99610921483579      1.34684958143401      0.28399159031940
  C           3.31897826233045      1.78490158907114      0.36498502006351
  O           3.66365068046694      3.05232804944396      0.70560704647832
  C           4.37236291406471      0.89409391003005      0.08784640240211
  O           5.65461727001492      1.31857621733245      0.16947467661741
  C           4.06627028016622     -0.43163033645918     -0.27025605516224
  O           5.15220783147340     -1.21459804225010     -0.51814681254256
  C           2.74838052220828     -0.87498370657210     -0.35497660871889
  C          -0.21372756107051     -1.63542996207926     -0.48329972518117
  O           0.55064408162932     -2.69433129690876     -0.82653403651833
  C          -1.64504500195255     -1.88428845633893     -0.49402049295399
  O          -2.06257210418532     -3.02891305457919     -0.81179637311007
  H          -5.76555800242205      2.26548991549829      0.91207376957690
  H          -5.78982482243545      0.07176453461442      0.26679528842893
  H          -3.73672121880026     -2.71754756033835     -0.64488377979009
  H          -2.23607905034523      2.50814914314667      0.81951165309362
  H           1.19700667901479      2.05443819037398      0.50549995921189
  H           2.86325843448916      3.57357761665821      0.87139624692264
  H           6.23198341988558      0.56689562787128     -0.04784063803496
  H           4.88147603063282     -2.11842885104779     -0.73898149092476
  H           2.55225963270458     -1.90751509270271     -0.63485284825919
  H          -0.09017445739737     -3.41395476589229     -1.01009068787202
