39
Coordinates from ORCA-job C:\Users\jabreumiranda\Radioprotection_Pipeline_Project\06_Quantum_DFT_ORCA\CHEMBL4087126_neutral_opt E -1108.265256348147
  O          -4.26352730250735     -2.71441795018784      1.16201793713968
  C          -3.60686526964005     -1.71235919233691      0.78983245592320
  C          -2.16389769977143     -1.70712873957242      0.70398652466253
  C          -1.47840024547459     -0.59870644975091      0.29467288078025
  C          -0.01721678033571     -0.47762729167403      0.17387207011887
  C           0.83219603693790     -1.56522108468012      0.45586622170812
  C           2.21223191119221     -1.43641657993990      0.34551054656200
  C           2.80488562667438     -0.22060753350076     -0.05195529742694
  C           4.27800477522550     -0.08685123293622     -0.16509601629370
  C           4.85545243113757      0.76197790155599     -1.12966909133703
  C           6.24237902872325      0.88746893472781     -1.23518607769026
  C           7.08273469587646      0.16969690217171     -0.37699929072728
  C           6.52317234391155     -0.67637721527520      0.58675945601447
  C           5.13634279139262     -0.80470840345758      0.69059693911903
  C           1.95049088760759      0.86147185276985     -0.33603314546761
  C           0.56799185485479      0.73875137437365     -0.22609488513935
  O          -2.12585471011708      0.54087857938041     -0.04786947063523
  C          -3.48385287950440      0.63545602096339      0.00377743631150
  C          -4.05529146996274      1.85002040681507     -0.36433578772446
  C          -5.45451422898920      1.96077077685426     -0.31512904690185
  O          -6.08589657346261      3.10034699636889     -0.65492532521588
  C          -6.26237241152695      0.88283978251297      0.09268440005541
  C          -5.67354740553048     -0.32637004149848      0.45769855048672
  O          -6.42559319544615     -1.35906371367876      0.84744632650110
  C          -4.25385372834963     -0.46752119655134      0.41651328765185
  H          -1.63439656708335     -2.61722927018068      0.98010215135387
  H           0.41772777108117     -2.52811133347353      0.75698290025282
  H           2.84071126380270     -2.30481229753287      0.55145278412988
  H           4.21351857499410      1.31288598279893     -1.82046933951846
  H           6.66889067065282      1.54528795598147     -1.99690323109572
  H           8.16809292759273      0.26925507071257     -0.45893965996720
  H           7.17003094666397     -1.23608539360296      1.26735720566660
  H           4.71454953146088     -1.45331310048205      1.46146387340574
  H           2.37327331188410      1.82502122659142     -0.62687013781194
  H          -0.06657728061875      1.59784024258603     -0.44323557060837
  H          -3.42708025810352      2.68463144364842     -0.67954536218030
  H          -5.44212915646984      3.77576806957972     -0.92128820106305
  H          -7.34677809584998      0.99636738406561      0.12191823919825
  H          -5.78513212292247     -2.10370888414562      1.05443274976275
