33
Coordinates from ORCA-job C:\Users\jabreumiranda\Radioprotection_Pipeline_Project\06_Quantum_DFT_ORCA\CHEMBL511458_neutral_opt E -1178.036833905601
  O      -4.848700      2.090300      1.723900
  C      -4.102300      1.152700      1.074000
  C      -4.697300      0.060200      0.448600
  C      -3.891200     -0.870300     -0.202900
  O      -4.527500     -1.923900     -0.801300
  C      -2.502600     -0.704600     -0.225200
  C      -1.919100      0.391600      0.403100
  C      -2.720900      1.326300      1.057000
  O      -0.565600      0.612800      0.415100
  C       0.271900     -0.300700     -0.215000
  C       1.701600      0.072800     -0.125000
  C       2.085100      1.409300     -0.350700
  C       3.424200      1.790700     -0.247600
  O       3.796300      3.086300     -0.469700
  C       4.389000      0.847400      0.084200
  O       5.707200      1.197700      0.190200
  C       4.019200     -0.475400      0.315200
  O       5.008600     -1.365500      0.638700
  C       2.686800     -0.868200      0.220100
  C      -0.166400     -1.397600     -0.860500
  O       0.653700     -2.299800     -1.512800
  C      -1.623400     -1.660600     -0.899900
  O      -2.062800     -2.649500     -1.482700
  H      -5.787800      1.845500      1.662200
  H      -5.773500     -0.081900      0.457200
  H      -3.851400     -2.498600     -1.224600
  H      -2.276000      2.185200      1.552200
  H       1.331200      2.147300     -0.611800
  H       3.013100      3.614100     -0.686100
  H       6.165900      0.369900      0.429300
  H       4.608400     -2.248500      0.719800
  H       2.407100     -1.899600      0.413700
  H       0.047100     -2.955500     -1.918100
33
Coordinates from ORCA-job C:\Users\jabreumiranda\Radioprotection_Pipeline_Project\06_Quantum_DFT_ORCA\CHEMBL511458_neutral_opt E -1178.045854248759
  O      -4.825549      2.148186      1.644639
  C      -4.092577      1.190727      1.027108
  C      -4.698151      0.076764      0.424311
  C      -3.900453     -0.882013     -0.200535
  O      -4.511524     -1.940987     -0.771684
  C      -2.496208     -0.733219     -0.225434
  C      -1.916724      0.392972      0.385994
  C      -2.703885      1.357558      1.013352
  O      -0.569037      0.590835      0.395918
  C       0.268072     -0.322104     -0.198879
  C       1.687878      0.064759     -0.109065
  C       2.051627      1.413707     -0.277630
  C       3.391480      1.807297     -0.182964
  O       3.777404      3.101709     -0.348931
  C       4.379767      0.853862      0.085303
  O       5.691153      1.222745      0.179556
  C       4.015716     -0.488304      0.257657
  O       5.037167     -1.353968      0.523272
  C       2.682115     -0.888454      0.167318
  C      -0.191466     -1.436996     -0.823301
  O       0.622229     -2.336665     -1.437530
  C      -1.631518     -1.714604     -0.869229
  O      -2.055625     -2.727086     -1.452774
  H      -5.766698      1.918228      1.589804
  H      -5.781672     -0.055145      0.433569
  H      -3.809389     -2.507900     -1.163843
  H      -2.248692      2.228118      1.487054
  H       1.283900      2.161138     -0.488230
  H       2.997367      3.647483     -0.527231
  H       6.189687      0.407794      0.365971
  H       4.684035     -2.254652      0.581333
  H       2.414953     -1.936855      0.310043
  H       0.024519     -3.005030     -1.824338
33
Coordinates from ORCA-job C:\Users\jabreumiranda\Radioprotection_Pipeline_Project\06_Quantum_DFT_ORCA\CHEMBL511458_neutral_opt E -1178.049250840390
  O      -4.814349      2.221735      1.520246
  C      -4.087472      1.240954      0.952011
  C      -4.697108      0.100101      0.390015
  C      -3.906919     -0.891207     -0.191272
  O      -4.487649     -1.969429     -0.728226
  C      -2.489456     -0.753169     -0.215194
  C      -1.917353      0.405090      0.359817
  C      -2.693738      1.403988      0.942000
  O      -0.573262      0.575474      0.366226
  C       0.270620     -0.346191     -0.176557
  C       1.681981      0.052208     -0.094273
  C       2.021020      1.414711     -0.170504
  C       3.356883      1.822146     -0.084873
  O       3.747037      3.118932     -0.162720
  C       4.370749      0.861644      0.084118
  O       5.668108      1.253029      0.168034
  C       4.021906     -0.499748      0.164799
  O       5.076180     -1.343160      0.338349
  C       2.691495     -0.910596      0.078788
  C      -0.214570     -1.485904     -0.760571
  O       0.587931     -2.408184     -1.324257
  C      -1.641573     -1.757768     -0.810228
  O      -2.056763     -2.812935     -1.345661
  H      -5.758888      2.004221      1.472642
  H      -5.783044     -0.020892      0.399454
  H      -3.764439     -2.538646     -1.092079
  H      -2.232587      2.289377      1.380375
  H       1.240465      2.168099     -0.300130
  H       2.966821      3.682766     -0.278584
  H       6.208266      0.452226      0.278040
  H       4.773787     -2.263569      0.349553
  H       2.444822     -1.971240      0.144409
  H      -0.008999     -3.094162     -1.683148
33
Coordinates from ORCA-job C:\Users\jabreumiranda\Radioprotection_Pipeline_Project\06_Quantum_DFT_ORCA\CHEMBL511458_neutral_opt E -1178.050168394087
  O      -4.818985      2.304911      1.357727
  C      -4.089657      1.293844      0.854468
  C      -4.699077      0.130475      0.337852
  C      -3.910467     -0.895853     -0.177421
  O      -4.476219     -2.002023     -0.667154
  C      -2.487713     -0.768515     -0.181764
  C      -1.918568      0.413725      0.345355
  C      -2.693778      1.446899      0.864203
  O      -0.573843      0.566244      0.357418
  C       0.277802     -0.373844     -0.138461
  C       1.684587      0.034978     -0.071219
  C       2.001569      1.405043     -0.040189
  C       3.332318      1.826714      0.030859
  O       3.707713      3.129205      0.053325
  C       4.367313      0.871939      0.075679
  O       5.655673      1.281843      0.141222
  C       4.039847     -0.498497      0.050936
  O       5.115776     -1.329145      0.107569
  C       2.713903     -0.923343     -0.020319
  C      -0.218789     -1.536594     -0.676877
  O       0.574368     -2.489380     -1.203670
  C      -1.644255     -1.802648     -0.711600
  O      -2.063031     -2.863477     -1.243045
  H      -5.765302      2.097240      1.302712
  H      -5.786346      0.022176      0.335345
  H      -3.741380     -2.595980     -0.974300
  H      -2.231748      2.349007      1.264956
  H       1.208348      2.154816     -0.072883
  H       2.920152      3.693707      0.016881
  H       6.221291      0.491423      0.161710
  H       4.840669     -2.256489      0.052834
  H       2.488391     -1.989359     -0.038722
  H      -0.030665     -3.189143     -1.522830
33
Coordinates from ORCA-job C:\Users\jabreumiranda\Radioprotection_Pipeline_Project\06_Quantum_DFT_ORCA\CHEMBL511458_neutral_opt E -1178.050830543403
  O      -4.818413      2.389498      1.172123
  C      -4.088168      1.348901      0.736778
  C      -4.699624      0.158524      0.288856
  C      -3.915623     -0.899825     -0.158575
  O      -4.471080     -2.031967     -0.598550
  C      -2.489807     -0.776124     -0.156929
  C      -1.919382      0.432670      0.296990
  C      -2.691894      1.499722      0.745113
  O      -0.573228      0.568383      0.309057
  C       0.287674     -0.400978     -0.117007
  C       1.690038      0.016494     -0.061114
  C       1.989653      1.381588      0.113160
  C       3.313617      1.818552      0.177729
  O       3.671649      3.116864      0.333963
  C       4.365551      0.886047      0.072353
  O       5.644222      1.315636      0.129714
  C       4.058096     -0.479640     -0.091948
  O       5.148541     -1.288716     -0.170246
  C       2.738738     -0.920746     -0.160009
  C      -0.221266     -1.596101     -0.578484
  O       0.556111     -2.602540     -1.034247
  C      -1.649857     -1.841981     -0.608501
  O      -2.072404     -2.961619     -1.009216
  H      -5.765854      2.186162      1.123390
  H      -5.787722      0.060923      0.285495
  H      -3.727660     -2.632063     -0.886720
  H      -2.227881      2.422467      1.092213
  H       1.187679      2.116074      0.198495
  H       2.877510      3.669539      0.394280
  H       6.230351      0.545078      0.039391
  H       4.892794     -2.212209     -0.312456
  H       2.534882     -1.981892     -0.286746
  H      -0.067345     -3.306822     -1.307750
33
Coordinates from ORCA-job C:\Users\jabreumiranda\Radioprotection_Pipeline_Project\06_Quantum_DFT_ORCA\CHEMBL511458_neutral_opt E -1178.051213105865
  O      -4.818539      2.410336      1.119730
  C      -4.088369      1.361710      0.698836
  C      -4.700696      0.163002      0.278005
  C      -3.916634     -0.904539     -0.146703
  O      -4.475989     -2.050877     -0.546975
  C      -2.493105     -0.776545     -0.154401
  C      -1.919666      0.438791      0.270891
  C      -2.693216      1.513468      0.699701
  O      -0.573339      0.578650      0.276104
  C       0.289245     -0.400242     -0.131690
  C       1.691590      0.016560     -0.068262
  C       1.992505      1.376304      0.151789
  C       3.315996      1.813529      0.221715
  O       3.666485      3.108854      0.421024
  C       4.368818      0.889288      0.079210
  O       5.649189      1.317175      0.146518
  C       4.063586     -0.468908     -0.130536
  O       5.151208     -1.278870     -0.241351
  C       2.745272     -0.911017     -0.208390
  C      -0.217669     -1.605580     -0.563621
  O       0.554208     -2.629926     -0.991696
  C      -1.648710     -1.848843     -0.590312
  O      -2.073933     -2.967046     -0.988274
  H      -5.765793      2.203686      1.080472
  H      -5.788422      0.064653      0.284132
  H      -3.731755     -2.665845     -0.799766
  H      -2.229852      2.443595      1.027346
  H       1.190907      2.106108      0.266155
  H       2.869169      3.653519      0.505917
  H       6.232405      0.548646      0.024694
  H       4.887005     -2.196062     -0.408293
  H       2.545478     -1.967762     -0.369697
  H      -0.077479     -3.335914     -1.241672
33
Coordinates from ORCA-job C:\Users\jabreumiranda\Radioprotection_Pipeline_Project\06_Quantum_DFT_ORCA\CHEMBL511458_neutral_opt E -1178.051312051981
  O      -4.820592      2.421999      1.083242
  C      -4.090058      1.367940      0.673637
  C      -4.701999      0.163406      0.269670
  C      -3.916022     -0.908687     -0.141737
  O      -4.477343     -2.058698     -0.529578
  C      -2.494791     -0.778481     -0.150028
  C      -1.920065      0.442562      0.254478
  C      -2.695762      1.522320      0.668099
  O      -0.574643      0.588406      0.253573
  C       0.289136     -0.397964     -0.135721
  C       1.691001      0.018450     -0.067403
  C       1.995457      1.372935      0.183809
  C       3.319764      1.809225      0.253526
  O       3.667678      3.101205      0.480276
  C       4.371893      0.890937      0.081591
  O       5.654793      1.315471      0.152698
  C       4.065355     -0.460200     -0.161233
  O       5.149655     -1.270278     -0.305133
  C       2.746607     -0.901531     -0.240943
  C      -0.214519     -1.612440     -0.540230
  O       0.553673     -2.647685     -0.945632
  C      -1.645487     -1.858780     -0.561427
  O      -2.068878     -2.979248     -0.950746
  H      -5.767332      2.211734      1.051027
  H      -5.789593      0.064422      0.278631
  H      -3.732822     -2.671380     -0.783974
  H      -2.234322      2.458335      0.981617
  H       1.195196      2.100177      0.320515
  H       2.869209      3.641120      0.582744
  H       6.233396      0.547818      0.006461
  H       4.876609     -2.182067     -0.487428
  H       2.547948     -1.954194     -0.429655
  H      -0.083242     -3.356929     -1.174127
33
Coordinates from ORCA-job C:\Users\jabreumiranda\Radioprotection_Pipeline_Project\06_Quantum_DFT_ORCA\CHEMBL511458_neutral_opt E -1178.051355523477
  O      -4.819390      2.434941      1.047788
  C      -4.089677      1.375645      0.650199
  C      -4.702081      0.164950      0.264813
  C      -3.915814     -0.912367     -0.133727
  O      -4.477397     -2.069505     -0.499060
  C      -2.495497     -0.779837     -0.149964
  C      -1.919733      0.446710      0.237297
  C      -2.695544      1.531439      0.638322
  O      -0.575126      0.594299      0.231401
  C       0.289316     -0.398217     -0.139909
  C       1.690559      0.018567     -0.069798
  C       1.995813      1.367839      0.208223
  C       3.320051      1.804300      0.281663
  O       3.667120      3.091511      0.535209
  C       4.372873      0.891821      0.086079
  O       5.656142      1.315550      0.162169
  C       4.066241     -0.453569     -0.185627
  O       5.150399     -1.259518     -0.353946
  C       2.747498     -0.894970     -0.268533
  C      -0.214525     -1.617874     -0.527966
  O       0.550237     -2.659752     -0.919835
  C      -1.645422     -1.863467     -0.550910
  O      -2.066792     -2.991787     -0.918438
  H      -5.765891      2.222824      1.022758
  H      -5.789609      0.065039      0.279595
  H      -3.732828     -2.687382     -0.738437
  H      -2.234653      2.472314      0.938008
  H       1.195816      2.091653      0.364458
  H       2.868339      3.628142      0.651449
  H       6.233728      0.550982     -0.002790
  H       4.875546     -2.168262     -0.548105
  H       2.550418     -1.943741     -0.479656
  H      -0.090216     -3.368379     -1.142129
33
Coordinates from ORCA-job C:\Users\jabreumiranda\Radioprotection_Pipeline_Project\06_Quantum_DFT_ORCA\CHEMBL511458_neutral_opt E -1178.051370769244
  O      -4.818552      2.448202      1.010987
  C      -4.089566      1.383402      0.627611
  C      -4.702206      0.166704      0.261102
  C      -3.915867     -0.915565     -0.124523
  O      -4.477482     -2.077779     -0.473330
  C      -2.495745     -0.782084     -0.146820
  C      -1.919632      0.450347      0.223029
  C      -2.695357      1.539997      0.610744
  O      -0.575718      0.599032      0.210971
  C       0.289635     -0.398163     -0.144773
  C       1.690443      0.019307     -0.075121
  C       1.995823      1.362525      0.230223
  C       3.319680      1.798901      0.308862
  O       3.666698      3.079626      0.592738
  C       4.373218      0.892541      0.088764
  O       5.656159      1.315823      0.170227
  C       4.066571     -0.446656     -0.212859
  O       5.151523     -1.246477     -0.404880
  C       2.747936     -0.887980     -0.298875
  C      -0.214733     -1.623451     -0.515116
  O       0.548187     -2.672515     -0.889384
  C      -1.645633     -1.870000     -0.534407
  O      -2.064845     -3.005367     -0.882722
  H      -5.764993      2.235361      0.991572
  H      -5.789682      0.066281      0.279744
  H      -3.734033     -2.698687     -0.706771
  H      -2.234939      2.485539      0.896152
  H       1.196145      2.081972      0.407335
  H       2.867933      3.612895      0.723700
  H       6.233691      0.555159     -0.012257
  H       4.877375     -2.153010     -0.609803
  H       2.551963     -1.932157     -0.532530
  H      -0.094093     -3.383821     -1.098988
33
Coordinates from ORCA-job C:\Users\jabreumiranda\Radioprotection_Pipeline_Project\06_Quantum_DFT_ORCA\CHEMBL511458_neutral_opt E -1178.051392835888
  O      -4.818096      2.472677      0.938936
  C      -4.089965      1.397634      0.584232
  C      -4.702587      0.171208      0.251187
  C      -3.915828     -0.919657     -0.108961
  O      -4.477592     -2.090459     -0.427871
  C      -2.495870     -0.786143     -0.138265
  C      -1.919692      0.455879      0.200601
  C      -2.695594      1.554274      0.561896
  O      -0.576542      0.605311      0.180911
  C       0.290445     -0.399836     -0.147538
  C       1.690829      0.018949     -0.079380
  C       1.996246      1.349824      0.274925
  C       3.319228      1.786600      0.359766
  O       3.665463      3.054350      0.697038
  C       4.373369      0.893606      0.091459
  O       5.655677      1.316702      0.178524
  C       4.066730     -0.432682     -0.263973
  O       5.152695     -1.218228     -0.504544
  C       2.748536     -0.874830     -0.352044
  C      -0.214226     -1.633972     -0.487971
  O       0.547139     -2.694167     -0.831734
  C      -1.645533     -1.882201     -0.499856
  O      -2.061583     -3.027946     -0.816982
  H      -5.764661      2.260077      0.926080
  H      -5.789945      0.070194      0.274122
  H      -3.736335     -2.717283     -0.648875
  H      -2.236069      2.507505      0.821993
  H       1.197306      2.059395      0.490975
  H       2.866289      3.579236      0.856829
  H       6.232899      0.564068     -0.035857
  H       4.880514     -2.120709     -0.728925
  H       2.553727     -1.908794     -0.628075
  H      -0.097073     -3.410680     -1.018020
33
Coordinates from ORCA-job C:\Users\jabreumiranda\Radioprotection_Pipeline_Project\06_Quantum_DFT_ORCA\CHEMBL511458_neutral_opt E -1178.051384491191
  O      -4.819900      2.473565      0.933811
  C      -4.091149      1.398129      0.581566
  C      -4.702927      0.171195      0.249415
  C      -3.915413     -0.919636     -0.108751
  O      -4.476946     -2.090785     -0.427172
  C      -2.495369     -0.786248     -0.136586
  C      -1.920189      0.456308      0.201768
  C      -2.696785      1.554728      0.561063
  O      -0.576860      0.606207      0.183432
  C       0.290178     -0.398926     -0.145064
  C       1.690908      0.019372     -0.077033
  C       1.996824      1.349400      0.279405
  C       3.320028      1.785738      0.362544
  O       3.666587      3.052963      0.701548
  C       4.373204      0.892964      0.089804
  O       5.655761      1.315832      0.173911
  C       4.065767     -0.432844     -0.267085
  O       5.151205     -1.217900     -0.511300
  C       2.747352     -0.874512     -0.353197
  C      -0.213366     -1.633169     -0.485799
  O       0.550297     -2.692342     -0.828510
  C      -1.644637     -1.882562     -0.497104
  O      -2.060293     -3.028271     -0.814284
  H      -5.766498      2.261220      0.919187
  H      -5.790223      0.069444      0.270973
  H      -3.735952     -2.717969     -0.647301
  H      -2.237748      2.508359      0.820530
  H       1.198300      2.058647      0.498143
  H       2.867293      3.576903      0.864057
  H       6.232388      0.563254     -0.042351
  H       4.878993     -2.120735     -0.734313
  H       2.551041     -1.907668     -0.631358
  H      -0.091973     -3.410760     -1.013349
33
Coordinates from ORCA-job C:\Users\jabreumiranda\Radioprotection_Pipeline_Project\06_Quantum_DFT_ORCA\CHEMBL511458_neutral_opt E -1178.051385690643
  O      -4.819007      2.473052      0.938177
  C      -4.090487      1.397963      0.584292
  C      -4.702519      0.172358      0.248443
  C      -3.915336     -0.918143     -0.110798
  O      -4.477460     -2.088183     -0.432421
  C      -2.495009     -0.786231     -0.135801
  C      -1.919844      0.455093      0.205620
  C      -2.696044      1.553241      0.566207
  O      -0.576014      0.603932      0.189956
  C       0.290170     -0.400730     -0.142280
  C       1.691361      0.017495     -0.074250
  C       1.996140      1.348732      0.278653
  C       3.319099      1.786513      0.359041
  O       3.664201      3.055527      0.693162
  C       4.372433      0.893710      0.087781
  O       5.654730      1.318103      0.168617
  C       4.066118     -0.433693     -0.263960
  O       5.151978     -1.218633     -0.505917
  C       2.748084     -0.876652     -0.348384
  C      -0.213596     -1.633834     -0.486689
  O       0.550922     -2.691672     -0.832912
  C      -1.644932     -1.882667     -0.498231
  O      -2.062230     -3.026393     -0.819743
  H      -5.765847      2.261972      0.920734
  H      -5.789854      0.070938      0.267982
  H      -3.736548     -2.715466     -0.652860
  H      -2.236378      2.505828      0.828348
  H       1.197005      2.057849      0.495340
  H       2.864053      3.578342      0.855131
  H       6.232049      0.565374     -0.045208
  H       4.880860     -2.122766     -0.725058
  H       2.551810     -1.910462     -0.623407
  H      -0.090007     -3.410600     -1.018967
33
Coordinates from ORCA-job C:\Users\jabreumiranda\Radioprotection_Pipeline_Project\06_Quantum_DFT_ORCA\CHEMBL511458_neutral_opt E -1178.051388024556
  O      -4.818640      2.476193      0.929324
  C      -4.090346      1.399801      0.578965
  C      -4.702495      0.173190      0.247001
  C      -3.915371     -0.918502     -0.108829
  O      -4.477658     -2.089506     -0.426664
  C      -2.495046     -0.786813     -0.134372
  C      -1.919826      0.455431      0.203276
  C      -2.695886      1.554786      0.560436
  O      -0.575965      0.604154      0.187168
  C       0.290200     -0.401375     -0.142437
  C       1.691430      0.017098     -0.074769
  C       1.996109      1.346850      0.283992
  C       3.318978      1.784902      0.364985
  O       3.663651      3.052328      0.705607
  C       4.372363      0.894094      0.087846
  O       5.654617      1.318576      0.169475
  C       4.066270     -0.431630     -0.270256
  O       5.152208     -1.214598     -0.518147
  C       2.748381     -0.874984     -0.354977
  C      -0.213728     -1.635430     -0.483300
  O       0.550644     -2.694331     -0.826534
  C      -1.645045     -1.884288     -0.494020
  O      -2.062572     -3.028913     -0.811796
  H      -5.765558      2.265490      0.912074
  H      -5.789825      0.071765      0.266795
  H      -3.736721     -2.717548     -0.644884
  H      -2.236079      2.508149      0.819512
  H       1.197007      2.054438      0.505500
  H       2.863258      3.573578      0.871396
  H       6.231983      0.566896     -0.047841
  H       4.881476     -2.118429     -0.738981
  H       2.552260     -1.907515     -0.634853
  H      -0.090174     -3.413955     -1.010091
