40
Coordinates from ORCA-job C:\Users\jabreumiranda\Radioprotection_Pipeline_Project\06_Quantum_DFT_ORCA\CHEMBL5431952_neutral_opt E -1183.394007324519
  O       2.696300      3.349100     -0.349200
  C       2.608200      2.146900     -0.125600
  C       1.378500      1.552000      0.416300
  C       1.337900      0.229500      0.634900
  C       0.136500     -0.426200      1.185500
  C       0.265300     -1.379500      2.203700
  C      -0.860400     -2.011500      2.731100
  C      -2.129500     -1.701800      2.240700
  C      -2.296200     -0.760900      1.213300
  C      -3.634300     -0.440700      0.690000
  C      -3.919200     -0.545200     -0.683100
  C      -5.189400     -0.241500     -1.183500
  C      -6.186800      0.171300     -0.308500
  O      -7.439100      0.478100     -0.750400
  C      -5.934700      0.283900      1.051900
  C      -4.664800     -0.021200      1.548500
  C      -1.147900     -0.133700      0.695300
  O       2.396800     -0.633900      0.398900
  C       3.561500     -0.117000     -0.112800
  C       4.601300     -1.017900     -0.350900
  C       5.804700     -0.544900     -0.868800
  O       6.847800     -1.387000     -1.118300
  C       5.983200      0.807100     -1.149900
  C       4.942800      1.700600     -0.910500
  O       5.173700      3.016900     -1.205600
  C       3.729600      1.238500     -0.391400
  H       0.558300      2.227300      0.623300
  H       1.245900     -1.632900      2.601600
  H      -0.749900     -2.747700      3.523200
  H      -2.994600     -2.214000      2.658200
  H      -3.148800     -0.879300     -1.375500
  H      -5.376700     -0.336200     -2.248300
  H      -7.466800      0.357300     -1.713600
  H      -6.721500      0.610300      1.725900
  H      -4.481200      0.082600      2.616000
  H      -1.265900      0.595600     -0.104800
  H       4.458300     -2.071100     -0.131000
  H       6.591500     -2.294400     -0.884700
  H       6.927100      1.162900     -1.553400
  H       4.362500      3.529000     -0.987400
40
Coordinates from ORCA-job C:\Users\jabreumiranda\Radioprotection_Pipeline_Project\06_Quantum_DFT_ORCA\CHEMBL5431952_neutral_opt E -1183.401878310863
  O       2.648161      3.369911     -0.534555
  C       2.577934      2.160739     -0.262956
  C       1.360994      1.555392      0.277872
  C       1.324542      0.233088      0.565356
  C       0.141078     -0.450419      1.122072
  C       0.295106     -1.419479      2.127189
  C      -0.824809     -2.050557      2.670307
  C      -2.104011     -1.730032      2.207339
  C      -2.285375     -0.771312      1.194874
  C      -3.639838     -0.436360      0.695349
  C      -3.923113     -0.431357     -0.681868
  C      -5.199802     -0.119294     -1.158292
  C      -6.218966      0.197571     -0.252986
  O      -7.480547      0.508413     -0.662813
  C      -5.958276      0.200469      1.121052
  C      -4.679887     -0.115383      1.586277
  C      -1.148390     -0.141644      0.661634
  O       2.391625     -0.602840      0.398270
  C       3.565592     -0.106591     -0.094557
  C       4.615932     -1.012441     -0.243118
  C       5.838399     -0.548140     -0.743285
  O       6.896316     -1.378100     -0.906374
  C       6.015120      0.797700     -1.093401
  C       4.956090      1.692640     -0.941470
  O       5.156871      2.980693     -1.286669
  C       3.713439      1.248344     -0.437965
  H       0.512114      2.216966      0.440599
  H       1.289852     -1.677105      2.497829
  H      -0.701187     -2.800506      3.454855
  H      -2.970360     -2.243374      2.632174
  H      -3.138915     -0.687170     -1.398736
  H      -5.390815     -0.130219     -2.234620
  H      -7.520179      0.468631     -1.630809
  H      -6.755406      0.452750      1.823325
  H      -4.490871     -0.100501      2.662472
  H      -1.277147      0.603050     -0.127283
  H       4.473779     -2.059794      0.030988
  H       6.650079     -2.275618     -0.632422
  H       6.973215      1.144685     -1.481682
  H       4.311657      3.457594     -1.112874
40
Coordinates from ORCA-job C:\Users\jabreumiranda\Radioprotection_Pipeline_Project\06_Quantum_DFT_ORCA\CHEMBL5431952_neutral_opt E -1183.404885900933
  O       2.604844      3.336894     -0.759066
  C       2.552692      2.142329     -0.392864
  C       1.345782      1.537687      0.143362
  C       1.313446      0.227981      0.515291
  C       0.142757     -0.469610      1.079988
  C       0.315571     -1.456240      2.067510
  C      -0.800952     -2.088361      2.616943
  C      -2.087044     -1.754984      2.180566
  C      -2.278922     -0.777925      1.185950
  C      -3.642755     -0.431143      0.706204
  C      -3.915863     -0.299720     -0.666133
  C      -5.194822      0.023311     -1.123350
  C      -6.237676      0.227087     -0.204778
  O      -7.500791      0.543887     -0.589971
  C      -5.980477      0.101383      1.170471
  C      -4.698898     -0.225468      1.612953
  C      -1.150480     -0.142261      0.646025
  O       2.394923     -0.575803      0.421419
  C       3.576966     -0.100204     -0.061660
  C       4.638728     -0.998649     -0.125444
  C       5.868562     -0.539535     -0.625902
  O       6.941584     -1.347807     -0.719466
  C       6.031609      0.791845     -1.052573
  C       4.956239      1.678233     -0.980694
  O       5.116274      2.942631     -1.383066
  C       3.696051      1.241909     -0.480614
  H       0.468442      2.176330      0.248841
  H       1.318586     -1.719560      2.410339
  H      -0.668508     -2.852856      3.387239
  H      -2.952941     -2.270214      2.605020
  H      -3.117271     -0.465596     -1.394546
  H      -5.384185      0.111852     -2.198018
  H      -7.543383      0.598966     -1.557180
  H      -6.791539      0.267101      1.884223
  H      -4.513126     -0.310248      2.687283
  H      -1.285203      0.616418     -0.128341
  H       4.505416     -2.030680      0.206666
  H       6.717792     -2.236730     -0.401529
  H       6.994146      1.132096     -1.437438
  H       4.244428      3.396052     -1.242559
40
Coordinates from ORCA-job C:\Users\jabreumiranda\Radioprotection_Pipeline_Project\06_Quantum_DFT_ORCA\CHEMBL5431952_neutral_opt E -1183.405884733880
  O       2.573339      3.264597     -0.960447
  C       2.522458      2.078728     -0.556295
  C       1.321319      1.481858     -0.012361
  C       1.303438      0.194715      0.440758
  C       0.138628     -0.502334      1.016640
  C       0.323046     -1.506212      1.984772
  C      -0.790163     -2.134733      2.544446
  C      -2.081018     -1.782966      2.139564
  C      -2.283150     -0.787377      1.165010
  C      -3.652830     -0.421398      0.717119
  C      -3.927418     -0.159579     -0.636305
  C      -5.211176      0.181234     -1.062986
  C      -6.262030      0.271558     -0.134506
  O      -7.528339      0.597956     -0.488598
  C      -6.001914      0.014374      1.223115
  C      -4.715711     -0.328054      1.635235
  C      -1.159512     -0.152702      0.614044
  O       2.409851     -0.577187      0.425700
  C       3.599334     -0.103590     -0.040400
  C       4.687244     -0.969501     -0.001184
  C       5.922971     -0.499142     -0.479710
  O       7.025190     -1.268829     -0.478390
  C       6.060847      0.808310     -0.986244
  C       4.957774      1.660665     -1.019351
  O       5.076822      2.898328     -1.502466
  C       3.688206      1.212877     -0.539841
  H       0.421988      2.096173      0.039467
  H       1.331011     -1.781934      2.299463
  H      -0.650739     -2.913157      3.299167
  H      -2.944435     -2.296955      2.569129
  H      -3.125222     -0.238603     -1.374705
  H      -5.406335      0.371542     -2.123154
  H      -7.575894      0.749439     -1.445443
  H      -6.819189      0.093780      1.944313
  H      -4.528162     -0.513750      2.696157
  H      -1.299653      0.620986     -0.143246
  H       4.572817     -1.981322      0.392222
  H       6.827394     -2.145835     -0.112857
  H       7.027841      1.154068     -1.354394
  H       4.171374      3.314368     -1.442342
40
Coordinates from ORCA-job C:\Users\jabreumiranda\Radioprotection_Pipeline_Project\06_Quantum_DFT_ORCA\CHEMBL5431952_neutral_opt E -1183.406405476473
  O       2.520454      3.113388     -1.289755
  C       2.496539      1.989872     -0.728884
  C       1.292463      1.397703     -0.194699
  C       1.297592      0.154862      0.372925
  C       0.134779     -0.538625      0.955126
  C       0.325367     -1.564997      1.898011
  C      -0.785592     -2.190743      2.464213
  C      -2.078716     -1.816383      2.092736
  C      -2.289263     -0.797720      1.143119
  C      -3.662150     -0.408593      0.730794
  C      -3.935023      0.015388     -0.582246
  C      -5.223127      0.376842     -0.975010
  C      -6.283230      0.324968     -0.055253
  O      -7.552594      0.661752     -0.377543
  C      -6.025761     -0.094638      1.261476
  C      -4.735904     -0.455611      1.641196
  C      -1.167519     -0.164758      0.584699
  O       2.435766     -0.569465      0.466025
  C       3.629117     -0.095818      0.007209
  C       4.743258     -0.914052      0.155762
  C       5.975996     -0.438697     -0.325089
  O       7.105091     -1.161568     -0.228637
  C       6.084662      0.826909     -0.934490
  C       4.957701      1.633865     -1.071244
  O       5.041459      2.840061     -1.634164
  C       3.686909      1.174740     -0.597886
  H       0.364872      1.968541     -0.235618
  H       1.336059     -1.856753      2.184906
  H      -0.641915     -2.987134      3.198764
  H      -2.939254     -2.332158      2.524138
  H      -3.128438      0.043910     -1.318629
  H      -5.420985      0.692620     -2.003975
  H      -7.600756      0.932988     -1.307567
  H      -6.852073     -0.123127      1.975713
  H      -4.551718     -0.764208      2.673055
  H      -1.310650      0.627837     -0.150656
  H       4.651862     -1.892987      0.628630
  H       6.935057     -2.015145      0.201255
  H       7.052629      1.175985     -1.296726
  H       4.117038      3.231348     -1.600584
40
Coordinates from ORCA-job C:\Users\jabreumiranda\Radioprotection_Pipeline_Project\06_Quantum_DFT_ORCA\CHEMBL5431952_neutral_opt E -1183.406755461044
  O       2.509430      3.082118     -1.341374
  C       2.489138      1.962663     -0.774795
  C       1.282309      1.368964     -0.244584
  C       1.297625      0.140543      0.351196
  C       0.134056     -0.553619      0.931128
  C       0.324905     -1.592525      1.860061
  C      -0.784331     -2.223799      2.423159
  C      -2.077780     -1.841208      2.063813
  C      -2.292448     -0.809710      1.128110
  C      -3.666221     -0.409838      0.731219
  C      -3.945698      0.048378     -0.569666
  C      -5.234882      0.422780     -0.946962
  C      -6.289192      0.350451     -0.023309
  O      -7.559624      0.700732     -0.330906
  C      -6.027824     -0.103501      1.279882
  C      -4.737172     -0.477640      1.644464
  C      -1.170426     -0.174447      0.572051
  O       2.444365     -0.568777      0.478642
  C       3.636455     -0.089105      0.021992
  C       4.760557     -0.887115      0.207461
  C       5.993001     -0.407348     -0.266277
  O       7.130543     -1.113218     -0.131556
  C       6.094135      0.840887     -0.909361
  C       4.958037      1.626612     -1.087272
  O       5.035955      2.811937     -1.696418
  C       3.689978      1.164264     -0.615233
  H       0.350712      1.929101     -0.311497
  H       1.335381     -1.891005      2.139718
  H      -0.639043     -3.030482      3.145811
  H      -2.934976     -2.363616      2.493059
  H      -3.145008      0.092836     -1.311154
  H      -5.435903      0.765674     -1.966291
  H      -7.609946      0.998405     -1.252534
  H      -6.850539     -0.147770      1.997158
  H      -4.551291     -0.808884      2.668499
  H      -1.315934      0.628676     -0.150548
  H       4.676200     -1.854262      0.705191
  H       6.962283     -1.956703      0.318083
  H       7.062615      1.190893     -1.269027
  H       4.100558      3.179056     -1.710831
40
Coordinates from ORCA-job C:\Users\jabreumiranda\Radioprotection_Pipeline_Project\06_Quantum_DFT_ORCA\CHEMBL5431952_neutral_opt E -1183.406903902927
  O       2.488189      3.010822     -1.465142
  C       2.474978      1.904144     -0.875748
  C       1.268258      1.313623     -0.339566
  C       1.295801      0.110837      0.304665
  C       0.132754     -0.582926      0.886976
  C       0.324973     -1.635561      1.800368
  C      -0.781891     -2.271320      2.363142
  C      -2.076139     -1.877596      2.021498
  C      -2.296145     -0.829839      1.104121
  C      -3.671061     -0.412159      0.732052
  C      -3.962686      0.085864     -0.552137
  C      -5.252509      0.482417     -0.904086
  C      -6.296087      0.392456      0.029432
  O      -7.567134      0.765306     -0.252879
  C      -6.025402     -0.102608      1.314662
  C      -4.733936     -0.497700      1.653919
  C      -1.174648     -0.194346      0.547567
  O       2.452293     -0.573009      0.482059
  C       3.643365     -0.084792      0.032428
  C       4.780466     -0.849360      0.276699
  C       6.014080     -0.358745     -0.180237
  O       7.163041     -1.032986      0.016204
  C       6.106918      0.866529     -0.865802
  C       4.959075      1.619616     -1.102227
  O       5.031956      2.786516     -1.748367
  C       3.691415      1.143881     -0.649535
  H       0.330870      1.855430     -0.449636
  H       1.335370     -1.943496      2.068775
  H      -0.634098     -3.089782      3.071740
  H      -2.929147     -2.405245      2.452362
  H      -3.172586      0.145560     -1.303611
  H      -5.460069      0.857740     -1.910405
  H      -7.623165      1.095736     -1.162808
  H      -6.840154     -0.161544      2.039768
  H      -4.542959     -0.857432      2.667095
  H      -1.324245      0.622296     -0.158246
  H       4.704512     -1.798946      0.808595
  H       6.996699     -1.861234      0.493560
  H       7.078091      1.224818     -1.209507
  H       4.090958      3.137436     -1.786648
40
Coordinates from ORCA-job C:\Users\jabreumiranda\Radioprotection_Pipeline_Project\06_Quantum_DFT_ORCA\CHEMBL5431952_neutral_opt E -1183.406963340442
  O       2.472780      2.943436     -1.578643
  C       2.467630      1.862350     -0.943081
  C       1.259898      1.267168     -0.415426
  C       1.294060      0.088031      0.271433
  C       0.131617     -0.608555      0.852547
  C       0.324279     -1.676283      1.748638
  C      -0.781777     -2.317166      2.307488
  C      -2.076354     -1.912479      1.981342
  C      -2.298373     -0.847057      1.084437
  C      -3.673269     -0.412563      0.733371
  C      -3.971274      0.127375     -0.532439
  C      -5.260703      0.542784     -0.863265
  C      -6.298828      0.429419      0.074034
  O      -7.569615      0.818906     -0.187237
  C      -6.022716     -0.108564      1.340725
  C      -4.731279     -0.521093      1.658548
  C      -1.177215     -0.209150      0.530993
  O       2.458172     -0.567692      0.495754
  C       3.649009     -0.075221      0.051507
  C       4.794276     -0.810262      0.345272
  C       6.028171     -0.313487     -0.104283
  O       7.184643     -0.958194      0.142021
  C       6.114102      0.886816     -0.833706
  C       4.958107      1.610009     -1.120367
  O       5.022809      2.751531     -1.811199
  C       3.691401      1.129143     -0.672688
  H       0.316836      1.787929     -0.568909
  H       1.334441     -1.993531      2.006321
  H      -0.633000     -3.148375      3.000921
  H      -2.927450     -2.444768      2.410588
  H      -3.187201      0.206912     -1.288526
  H      -5.471782      0.951419     -1.855836
  H      -7.628994      1.182633     -1.084150
  H      -6.832962     -0.186871      2.069111
  H      -4.537931     -0.913927      2.658984
  H      -1.329267      0.621852     -0.157123
  H       4.724483     -1.741052      0.910396
  H       7.021670     -1.768898      0.649589
  H       7.086142      1.248711     -1.171236
  H       4.075467      3.079161     -1.884807
40
Coordinates from ORCA-job C:\Users\jabreumiranda\Radioprotection_Pipeline_Project\06_Quantum_DFT_ORCA\CHEMBL5431952_neutral_opt E -1183.407021273046
  O       2.462796      2.890864     -1.666616
  C       2.462934      1.830739     -0.995845
  C       1.255232      1.231729     -0.473509
  C       1.291911      0.072295      0.246868
  C       0.130319     -0.627439      0.826913
  C       0.323084     -1.711067      1.703992
  C      -0.782684     -2.356135      2.259035
  C      -2.077622     -1.939965      1.948660
  C      -2.299594     -0.857804      1.072094
  C      -3.674032     -0.409275      0.737326
  C      -3.977079      0.153319     -0.516961
  C      -5.266289      0.580501     -0.833332
  C      -6.299827      0.456586      0.108256
  O      -7.570693      0.854060     -0.139477
  C      -6.018035     -0.103200      1.364684
  C      -4.726578     -0.527334      1.667132
  C      -1.178999     -0.216584      0.522601
  O       2.460711     -0.559457      0.507076
  C       3.652025     -0.064925      0.068340
  C       4.801119     -0.778314      0.398256
  C       6.035967     -0.279060     -0.047234
  O       7.195947     -0.903329      0.232079
  C       6.118816      0.901917     -0.808565
  C       4.958456      1.603295     -1.131430
  O       5.019565      2.726180     -1.851950
  C       3.690878      1.119912     -0.688770
  H       0.309361      1.735729     -0.663534
  H       1.332740     -2.039058      1.949915
  H      -0.633335     -3.200351      2.936514
  H      -2.927937     -2.475972      2.375258
  H      -3.197774      0.242017     -1.277207
  H      -5.480618      1.005914     -1.818212
  H      -7.633356      1.233420     -1.029804
  H      -6.823773     -0.190749      2.097103
  H      -4.530355     -0.939559      2.659326
  H      -1.333360      0.628271     -0.147933
  H       4.733870     -1.694349      0.987379
  H       7.034191     -1.699446      0.762765
  H       7.091611      1.265822     -1.141816
  H       4.070404      3.041203     -1.948278
40
Coordinates from ORCA-job C:\Users\jabreumiranda\Radioprotection_Pipeline_Project\06_Quantum_DFT_ORCA\CHEMBL5431952_neutral_opt E -1183.407068510935
  O       2.451321      2.806099     -1.795252
  C       2.457210      1.776530     -1.077940
  C       1.249426      1.172395     -0.562335
  C       1.289043      0.046861      0.210090
  C       0.128252     -0.656066      0.788151
  C       0.319894     -1.763689      1.635089
  C      -0.785933     -2.414156      2.183952
  C      -2.080725     -1.979824      1.898192
  C      -2.301273     -0.872555      1.053418
  C      -3.674743     -0.403271      0.743740
  C      -3.985134      0.191375     -0.493406
  C      -5.274003      0.635375     -0.787559
  C      -6.300176      0.496169      0.160265
  O      -7.570497      0.906721     -0.066812
  C      -6.010237     -0.094717      1.400893
  C      -4.719051     -0.535458      1.680454
  C      -1.180901     -0.225935      0.510738
  O       2.464141     -0.545607      0.526156
  C       3.656111     -0.047781      0.094915
  C       4.809705     -0.725444      0.479405
  C       6.045409     -0.223489      0.038213
  O       7.209309     -0.817394      0.363291
  C       6.124639      0.927175     -0.768976
  C       4.959404      1.593291     -1.145201
  O       5.016505      2.686558     -1.909795
  C       3.690635      1.104869     -0.711607
  H       0.301096      1.647080     -0.807910
  H       1.328164     -2.109026      1.861778
  H      -0.636620     -3.277914      2.836372
  H      -2.930625     -2.520415      2.320036
  H      -3.212761      0.293243     -1.259212
  H      -5.493428      1.085455     -1.760322
  H      -7.637934      1.307082     -0.947618
  H      -6.808947     -0.194279      2.139489
  H      -4.517694     -0.973745      2.660465
  H      -1.337402      0.641109     -0.130449
  H       4.745425     -1.617926      1.103992
  H       7.048771     -1.593323      0.923544
  H       7.098137      1.294387     -1.096521
  H       4.065489      2.980642     -2.040624
40
Coordinates from ORCA-job C:\Users\jabreumiranda\Radioprotection_Pipeline_Project\06_Quantum_DFT_ORCA\CHEMBL5431952_neutral_opt E -1183.407151504638
  O       2.446120      2.658065     -1.996181
  C       2.454883      1.679825     -1.210184
  C       1.245718      1.068403     -0.706496
  C       1.285107      0.002556      0.146158
  C       0.124471     -0.702537      0.721304
  C       0.313133     -1.845331      1.520703
  C      -0.792976     -2.502705      2.060720
  C      -2.086276     -2.040277      1.814748
  C      -2.303509     -0.895863      1.020328
  C      -3.674780     -0.394521      0.753435
  C      -3.996961      0.251088     -0.454509
  C      -5.284700      0.721759     -0.710269
  C      -6.297564      0.558729      0.248013
  O      -7.566044      0.991742      0.056504
  C      -5.994979     -0.081873      1.460793
  C      -4.705172     -0.548953      1.701803
  C      -1.183047     -0.242112      0.486718
  O       2.464701     -0.524332      0.550053
  C       3.658157     -0.021160      0.131163
  C       4.814160     -0.635991      0.603380
  C       6.051743     -0.127403      0.174848
  O       7.217942     -0.666360      0.578098
  C       6.130433      0.971895     -0.701143
  C       4.962552      1.575844     -1.163771
  O       5.018784      2.619201     -1.995223
  C       3.691682      1.077340     -0.748315
  H       0.297969      1.489408     -1.037195
  H       1.318716     -2.216872      1.715106
  H      -0.644857     -3.395035      2.673760
  H      -2.936283     -2.586224      2.229347
  H      -3.236119      0.373134     -1.228891
  H      -5.513211      1.211291     -1.661648
  H      -7.641794      1.423650     -0.808615
  H      -6.782039     -0.199750      2.209123
  H      -4.494425     -1.026977      2.661046
  H      -1.340511      0.658892     -0.105572
  H       4.750591     -1.487776      1.282494
  H       7.056082     -1.411300      1.178674
  H       7.105377      1.346754     -1.015400
  H       4.066926      2.874175     -2.183810
40
Coordinates from ORCA-job C:\Users\jabreumiranda\Radioprotection_Pipeline_Project\06_Quantum_DFT_ORCA\CHEMBL5431952_neutral_opt E -1183.407119358973
  O       2.443385      2.663191     -1.986368
  C       2.452595      1.681852     -1.204704
  C       1.243525      1.069222     -0.701157
  C       1.285185      0.000950      0.147826
  C       0.124551     -0.704052      0.721685
  C       0.313453     -1.845401      1.522766
  C      -0.792853     -2.502115      2.062982
  C      -2.085979     -2.039921      1.815125
  C      -2.302826     -0.897091      1.018436
  C      -3.674189     -0.395954      0.751293
  C      -3.997369      0.243529     -0.459792
  C      -5.284868      0.715142     -0.715142
  C      -6.295648      0.559625      0.246377
  O      -7.563280      0.995637      0.055736
  C      -5.992091     -0.075159      1.461771
  C      -4.702797     -0.543490      1.702822
  C      -1.182198     -0.243650      0.483920
  O       2.465011     -0.528521      0.549077
  C       3.657925     -0.023918      0.129307
  C       4.814642     -0.639722      0.598317
  C       6.051500     -0.128662      0.171395
  O       7.218033     -0.667310      0.573857
  C       6.128813      0.973411     -0.701050
  C       4.960399      1.578002     -1.160916
  O       5.015745      2.624184     -1.989140
  C       3.689899      1.078325     -0.745283
  H       0.293884      1.489517     -1.028004
  H       1.319514     -2.215651      1.718024
  H      -0.645047     -3.393096      2.678050
  H      -2.936920     -2.584124      2.229933
  H      -3.237112      0.359840     -1.235549
  H      -5.514903      1.200215     -1.668404
  H      -7.640281      1.421587     -0.812157
  H      -6.777929     -0.186641      2.212348
  H      -4.489762     -1.015787      2.664367
  H      -1.337944      0.656907     -0.109767
  H       4.751993     -1.493572      1.274901
  H       7.057192     -1.416209      1.169719
  H       7.103097      1.350187     -1.015027
  H       4.063652      2.879123     -2.176473
40
Coordinates from ORCA-job C:\Users\jabreumiranda\Radioprotection_Pipeline_Project\06_Quantum_DFT_ORCA\CHEMBL5431952_neutral_opt E -1183.407121799986
  O       2.444866      2.660562     -1.989112
  C       2.452865      1.679916     -1.207067
  C       1.242915      1.066983     -0.704962
  C       1.285465      0.000481      0.146032
  C       0.123832     -0.704256      0.718657
  C       0.313363     -1.846924      1.517616
  C      -0.792617     -2.504610      2.057131
  C      -2.085558     -2.041585      1.810164
  C      -2.302675     -0.897340      1.015750
  C      -3.674443     -0.396065      0.750835
  C      -3.999256      0.241361     -0.461157
  C      -5.286934      0.713737     -0.714112
  C      -6.295293      0.561246      0.250214
  O      -7.562619      0.999555      0.062048
  C      -5.990175     -0.071880      1.465825
  C      -4.700940     -0.540966      1.705243
  C      -1.182520     -0.242154      0.481535
  O       2.464828     -0.528158      0.551074
  C       3.657931     -0.023030      0.130994
  C       4.814602     -0.637594      0.601656
  C       6.051481     -0.126064      0.176192
  O       7.217536     -0.662710      0.582352
  C       6.128874      0.974755     -0.697603
  C       4.960711      1.577815     -1.159508
  O       5.016537      2.622053     -1.990416
  C       3.689841      1.078606     -0.743756
  H       0.291767      1.482330     -1.033121
  H       1.320016     -2.216597      1.710664
  H      -0.644706     -3.396658      2.670620
  H      -2.937563     -2.585303      2.223306
  H      -3.239557      0.354495     -1.237856
  H      -5.519527      1.197354     -1.667477
  H      -7.641770      1.421640     -0.807484
  H      -6.774967     -0.180744      2.217866
  H      -4.484695     -1.011368      2.666969
  H      -1.337125      0.659666     -0.110135
  H       4.751687     -1.490619      1.279243
  H       7.056720     -1.414411      1.174600
  H       7.102932      1.351832     -1.011906
  H       4.064174      2.875049     -2.179814
40
Coordinates from ORCA-job C:\Users\jabreumiranda\Radioprotection_Pipeline_Project\06_Quantum_DFT_ORCA\CHEMBL5431952_neutral_opt E -1183.407122650760
  O       2.445598      2.636676     -2.019183
  C       2.453084      1.664252     -1.227030
  C       1.242828      1.049611     -0.727699
  C       1.285208     -0.007331      0.135185
  C       0.122936     -0.712367      0.706890
  C       0.311920     -1.860289      1.498523
  C      -0.794071     -2.519165      2.036573
  C      -2.086485     -2.051686      1.795683
  C      -2.303022     -0.901910      1.009166
  C      -3.674350     -0.395525      0.751718
  C      -4.001583      0.248000     -0.456465
  C      -5.288703      0.725478     -0.702452
  C      -6.293746      0.572117      0.265160
  O      -7.560331      1.015564      0.083721
  C      -5.986214     -0.067135      1.476894
  C      -4.697607     -0.541329      1.709484
  C      -1.182964     -0.245638      0.476098
  O       2.464324     -0.525302      0.554473
  C       3.657648     -0.018674      0.136469
  C       4.814241     -0.622783      0.620728
  C       6.051387     -0.109562      0.198165
  O       7.217220     -0.636494      0.617394
  C       6.129086      0.982897     -0.686003
  C       4.961016      1.575571     -1.161379
  O       5.017302      2.611741     -2.002380
  C       3.689889      1.074423     -0.748706
  H       0.291325      1.454277     -1.067832
  H       1.318376     -2.233036      1.686318
  H      -0.646564     -3.415414      2.643999
  H      -2.939140     -2.595552      2.207304
  H      -3.243995      0.361651     -1.235138
  H      -5.523721      1.213918     -1.652761
  H      -7.641661      1.440278     -0.784329
  H      -6.768716     -0.176617      2.231234
  H      -4.478629     -1.016511      2.668231
  H      -1.336973      0.661239     -0.107963
  H       4.751019     -1.469269      1.306442
  H       7.056032     -1.384942      1.213627
  H       7.103180      1.361649     -0.998167
  H       4.064855      2.857590     -2.200895
40
Coordinates from ORCA-job C:\Users\jabreumiranda\Radioprotection_Pipeline_Project\06_Quantum_DFT_ORCA\CHEMBL5431952_neutral_opt E -1183.407131934234
  O       2.444960      2.646500     -2.006544
  C       2.452595      1.670742     -1.218470
  C       1.242694      1.056039     -0.718652
  C       1.285630     -0.004764      0.139556
  C       0.123163     -0.709710      0.711442
  C       0.312217     -1.855951      1.505587
  C      -0.793771     -2.514578      2.043993
  C      -2.086210     -2.048454      1.800778
  C      -2.302888     -0.900479      1.011649
  C      -3.674329     -0.395860      0.751402
  C      -4.000815      0.243490     -0.459222
  C      -5.287924      0.719465     -0.707951
  C      -6.293702      0.568680      0.259341
  O      -7.560418      1.010856      0.075364
  C      -5.986987     -0.066473      1.473441
  C      -4.698327     -0.539189      1.708737
  C      -1.182848     -0.244476      0.478390
  O       2.464632     -0.526654      0.553781
  C       3.657743     -0.020124      0.134749
  C       4.814579     -0.628320      0.613392
  C       6.051547     -0.115638      0.189512
  O       7.217602     -0.646282      0.603400
  C       6.128782      0.980294     -0.690404
  C       4.960465      1.577193     -1.160016
  O       5.016409      2.616791     -1.996781
  C       3.689611      1.076445     -0.746073
  H       0.290318      1.463297     -1.053189
  H       1.318952     -2.227093      1.695068
  H      -0.646284     -3.409473      2.653413
  H      -2.939169     -2.591904      2.212383
  H      -3.242325      0.354729     -1.237385
  H      -5.522567      1.204624     -1.660037
  H      -7.641341      1.432443     -0.794254
  H      -6.770338     -0.173995      2.227189
  H      -4.479687     -1.011387      2.669048
  H      -1.336683      0.660729     -0.108387
  H       4.751633     -1.477522      1.295771
  H       7.056737     -1.397343      1.196418
  H       7.102635      1.358634     -1.003833
  H       4.063709      2.865121     -2.191507
40
Coordinates from ORCA-job C:\Users\jabreumiranda\Radioprotection_Pipeline_Project\06_Quantum_DFT_ORCA\CHEMBL5431952_neutral_opt E -1183.407129371270
  O       2.445031      2.646134     -2.007217
  C       2.452642      1.670573     -1.218823
  C       1.242832      1.056023     -0.718829
  C       1.285624     -0.004582      0.139695
  C       0.123239     -0.709587      0.711536
  C       0.312224     -1.855956      1.505499
  C      -0.793751     -2.514670      2.043839
  C      -2.086223     -2.048575      1.800710
  C      -2.302920     -0.900464      1.011752
  C      -3.674312     -0.395769      0.751500
  C      -4.000715      0.244009     -0.458895
  C      -5.287810      0.719963     -0.707705
  C      -6.293756      0.568660      0.259375
  O      -7.560526      1.010647      0.075356
  C      -5.987136     -0.066912      1.473308
  C      -4.698441     -0.539566      1.708590
  C      -1.182841     -0.244460      0.478689
  O       2.464583     -0.526386      0.553879
  C       3.657715     -0.020030      0.134832
  C       4.814514     -0.628100      0.613721
  C       6.051510     -0.115558      0.189670
  O       7.217595     -0.646147      0.603606
  C       6.128800      0.980138     -0.690548
  C       4.960482      1.576975     -1.160354
  O       5.016442      2.616421     -1.997267
  C       3.689672      1.076254     -0.746404
  H       0.290490      1.463250     -1.053534
  H       1.318954     -2.227194      1.694967
  H      -0.646252     -3.409672      2.653099
  H      -2.939101     -2.592158      2.212334
  H      -3.242159      0.355678     -1.236944
  H      -5.522296      1.205455     -1.659659
  H      -7.641287      1.432822     -0.793991
  H      -6.770581     -0.174828      2.226897
  H      -4.480015     -1.012187      2.668756
  H      -1.336831      0.660811     -0.107947
  H       4.751538     -1.477097      1.296355
  H       7.056617     -1.396742      1.197201
  H       7.102687      1.358399     -1.003972
  H       4.063760      2.864830     -2.191977
