35
Coordinates from ORCA-job C:\Users\jabreumiranda\Radioprotection_Pipeline_Project\06_Quantum_DFT_ORCA\CHEMBL4952776_neutral_opt E -874.204540734981
  C          -6.59361063824584     -0.18523050991379     -0.59578543235695
  C          -6.46936915603988      0.69739002805132      0.50085453259696
  C          -5.21946424517784      1.05851889798148      1.00900448428276
  C          -4.09856322948924      0.50508660662959      0.38110531965199
  N          -2.74310113551968      0.62879249047161      0.60184390287515
  C          -2.09162352630489     -0.14927970168079     -0.33102975381613
  C          -0.63019561539755     -0.26391094316495     -0.40413941890208
  C          -0.06656958502428     -1.00922623503435     -1.47440864033142
  C           1.30851749831350     -1.16462914276340     -1.62020700425684
  C           2.12421583159036     -0.55371419348227     -0.66155504474745
  N           3.48985756494155     -0.49386107916658     -0.48598335228202
  C           3.73268263893973      0.25335929510414      0.64820918095222
  C           5.08132001295738      0.54181411320208      1.16388553848583
  C           6.21191005839477     -0.46316657097707      1.02875050148688
  C           6.24783629872504      0.79987607571469      0.22491473958885
  N           2.61725417542925      0.67802246876530      1.21371817971817
  C           1.58748674031314      0.19390259596163      0.42171729540921
  C           0.20197468578966      0.33978125786632      0.55269263302687
  N          -2.94202487669810     -0.76677829659589     -1.13811113526438
  C          -4.20383977671734     -0.38404561275489     -0.72526894620184
  C          -5.47239042306550     -0.73390228869994     -1.21885404996806
  H          -7.59164151752760     -0.44123781071446     -0.96095571330648
  H          -7.37202804371480      1.10650428406901      0.96197377603446
  H          -5.12200206245001      1.74032830106061      1.85668310943146
  H          -2.31248417635868      1.20993614143968      1.31211418774043
  H          -0.74749260639347     -1.46488819737716     -2.19419115388071
  H           1.72859192204395     -1.73857470198245     -2.44869191087416
  H           4.18292951766500     -0.92637857222536     -1.08793951557452
  H           5.04435145780635      1.13005692363867      2.08324014848428
  H           6.88741997421097     -0.56115387647636      1.88297131905768
  H           5.99331362380446     -1.40198206486050      0.51093974117637
  H           6.05325216082222      0.73717620588303     -0.85002475452837
  H           6.94817640055092      1.58760616295648      0.51588678843780
  H          -0.19730468178673      0.91004171075815      1.39380409502512
  H          -5.56748526638684     -1.41623376168358     -2.06696364717108
