37
Coordinates from ORCA-job C:\Users\jabreumiranda\Radioprotection_Pipeline_Project\06_Quantum_DFT_ORCA\CHEMBL1683055_neutral_opt E -1004.443389761184
  N           7.08043306842757     -1.69640915024385     -1.20776180090384
  C           5.98206499539975     -0.96545420890415     -0.89282521171908
  N           5.98506871753521      0.32230082245790     -0.57333601753601
  C           4.66914649251751      0.62203146082782     -0.27432158661633
  C           4.07129398538755      1.82197443386465      0.13464118015905
  C           2.69680867968999      1.83495072092667      0.38100133644566
  C           1.88621125212025      0.68270448678176      0.22313316250351
  C           0.42806348624676      0.74667061394483      0.47376546105655
  C          -0.10245859763860      1.69269225211463      1.42530949947603
  C          -1.44242292905055      1.78041870371849      1.69124450008828
  C          -2.37562460530730      0.92586116155142      1.02325066333671
  N          -3.68317381179519      1.01761841002790      1.28594457241513
  C          -4.51207976722667      0.19324377042780      0.62603118268497
  C          -5.91984360331168      0.25126115345220      0.86857525913584
  C          -6.77444645041846     -0.58749365494264      0.19562002838725
  C          -6.27337906067279     -1.52972666555812     -0.75523628001208
  C          -4.92787072199556     -1.61722094145659     -1.01622848593549
  C          -4.00298935415264     -0.76243299057058     -0.33720561841718
  N          -2.69087524635520     -0.85498631117628     -0.59696996877924
  C          -1.86255831961702     -0.03253642667576      0.06449441635059
  C          -0.45964591560765     -0.08892630273654     -0.18138914060344
  C           2.48323550438230     -0.52916549601614     -0.19096632487931
  C           3.85058835328309     -0.53525171820167     -0.42746959707146
  N           4.72971571936857     -1.53233008163748     -0.82205502454619
  H           7.91249826686285     -1.16929475192641     -1.45119439121108
  H           6.95256137749137     -2.56744867518787     -1.71248999198869
  H           4.67000143040380      2.72801858932840      0.25397715210029
  H           2.23128969052503      2.77612387390745      0.67922857832020
  H           0.58936271788006      2.34091994459946      1.96558035703792
  H          -1.83347245887296      2.49224263590476      2.42145692100735
  H          -6.28131290228746      0.97866060044657      1.59879722004208
  H          -7.84983803356197     -0.53984921977246      0.38371790806584
  H          -6.97531862540436     -2.18510204240395     -1.27689484689943
  H          -4.52540903177937     -2.33044188416054     -1.73892051883912
  H          -0.12057240064728     -0.80775086900181     -0.92889201696618
  H           1.89382256284153     -1.44114382308784     -0.29696303082356
  H           4.50112553533952     -2.50182842062203     -1.01454954486556
