40
Coordinates from ORCA-job C:\Users\jabreumiranda\Radioprotection_Pipeline_Project\06_Quantum_DFT_ORCA\CHEMBL5431952_neutral_opt E -1183.407129371270
  O           2.44503094596212      2.64613413160710     -2.00721661840165
  C           2.45264187103855      1.67057343748866     -1.21882302683925
  C           1.24283231544468      1.05602277352213     -0.71882918714218
  C           1.28562350176960     -0.00458152886735      0.13969461811921
  C           0.12323929385084     -0.70958664512797      0.71153590956180
  C           0.31222374178678     -1.85595635967519      1.50549858941517
  C          -0.79375113912308     -2.51467026639530      2.04383935416549
  C          -2.08622286752477     -2.04857545464139      1.80070999221527
  C          -2.30291977264633     -0.90046353818825      1.01175177082565
  C          -3.67431229675975     -0.39576938137482      0.75149974708671
  C          -4.00071501795519      0.24400868741148     -0.45889479823178
  C          -5.28780978295836      0.71996289049936     -0.70770502438994
  C          -6.29375554118616      0.56866005560736      0.25937500515486
  O          -7.56052554447686      1.01064656618869      0.07535621613610
  C          -5.98713589450140     -0.06691232604694      1.47330769295750
  C          -4.69844106483055     -0.53956630380864      1.70859040478388
  C          -1.18284094834131     -0.24445976439105      0.47868914130709
  O           2.46458255951280     -0.52638552076179      0.55387929830111
  C           3.65771492147854     -0.02002998386801      0.13483203491942
  C           4.81451416572339     -0.62810037774787      0.61372097337104
  C           6.05151034051233     -0.11555803630148      0.18967032939085
  O           7.21759451158482     -0.64614727568878      0.60360628848174
  C           6.12880043504564      0.98013827315867     -0.69054813746089
  C           4.96048238525537      1.57697490535128     -1.16035447013565
  O           5.01644206759609      2.61642064112494     -1.99726676493691
  C           3.68967198660803      1.07625353422177     -0.74640439438398
  H           0.29049005401264      1.46325041976339     -1.05353359902764
  H           1.31895409863102     -2.22719432810666      1.69496733802583
  H          -0.64625200701823     -3.40967175891406      2.65309859003540
  H          -2.93910051197407     -2.59215765105317      2.21233391210826
  H          -3.24215888023194      0.35567777444017     -1.23694373818231
  H          -5.52229644724647      1.20545544830339     -1.65965850627803
  H          -7.64128671076318      1.43282155151531     -0.79399079859952
  H          -6.77058124829796     -0.17482846834553      2.22689668005232
  H          -4.48001489025525     -1.01218720379557      2.66875583531990
  H          -1.33683055511225      0.66081147159222     -0.10794716667460
  H           4.75153847397937     -1.47709697602650      1.29635485019693
  H           7.05661653163826     -1.39674237065207      1.19720134317925
  H           7.10268687327664      1.35839901168197     -1.00397226641334
  H           4.06376004649558      2.86482994630050     -2.19197741801310
