35
Coordinates from ORCA-job C:\Users\jabreumiranda\Radioprotection_Pipeline_Project\06_Quantum_DFT_ORCA\CHEMBL4952776_neutral_opt E -874.195562320827
  C      -6.619900     -0.130500     -0.608000
  C      -6.494000      0.674400      0.527400
  C      -5.238300      0.994900      1.057100
  C      -4.128100      0.469500      0.393000
  N      -2.780200      0.569700      0.620200
  C      -2.107100     -0.149600     -0.343900
  C      -0.645000     -0.274000     -0.423600
  C      -0.085200     -1.043300     -1.461000
  C       1.298400     -1.214400     -1.611100
  C       2.104600     -0.577500     -0.670900
  N       3.463300     -0.519000     -0.502300
  C       3.723700      0.256700      0.596400
  C       5.131000      0.597200      1.161400
  C       6.237000     -0.422500      1.099600
  C       6.292700      0.798100      0.225000
  N       2.613500      0.699900      1.143600
  C       1.599600      0.191400      0.369300
  C       0.210700      0.350100      0.501700
  N      -2.975500     -0.702900     -1.174600
  C      -4.221400     -0.332000     -0.735600
  C      -5.486800     -0.643200     -1.252900
  H      -7.607700     -0.363600     -0.998200
  H      -7.390100      1.060100      1.009700
  H      -5.141300      1.619500      1.938100
  H      -2.353900      1.087000      1.372400
  H      -0.748000     -1.527800     -2.179500
  H       1.706300     -1.812000     -2.418600
  H       4.156600     -0.966400     -1.082000
  H       5.097200      1.230600      2.043200
  H       6.915800     -0.474600      1.944100
  H       6.047200     -1.382100      0.634900
  H       6.141100      0.676900     -0.840400
  H       7.009300      1.572500      0.477300
  H      -0.150200      0.955200      1.322500
  H      -5.575400     -1.268300     -2.134100
35
Coordinates from ORCA-job C:\Users\jabreumiranda\Radioprotection_Pipeline_Project\06_Quantum_DFT_ORCA\CHEMBL4952776_neutral_opt E -874.203649350476
  C      -6.595794     -0.139791     -0.623849
  C      -6.471576      0.675332      0.520088
  C      -5.221481      1.000458      1.056598
  C      -4.103572      0.475562      0.400110
  N      -2.750528      0.580786      0.636686
  C      -2.092571     -0.147189     -0.333545
  C      -0.634010     -0.268505     -0.406142
  C      -0.070522     -1.042594     -1.451288
  C       1.306980     -1.209817     -1.598286
  C       2.118156     -0.571281     -0.655265
  N       3.485841     -0.509575     -0.484986
  C       3.729231      0.269785      0.620347
  C       5.088217      0.586803      1.147095
  C       6.194367     -0.437672      1.066145
  C       6.246668      0.790369      0.200130
  N       2.616755      0.715247      1.176048
  C       1.592288      0.206287      0.399752
  C       0.204497      0.360725      0.528063
  N      -2.946898     -0.711889     -1.178105
  C      -4.202919     -0.343460     -0.747748
  C      -5.470005     -0.657413     -1.269354
  H      -7.589310     -0.372594     -1.014767
  H      -7.373365      1.063534      1.000707
  H      -5.128971      1.631670      1.942281
  H      -2.319647      1.103245      1.392398
  H      -0.737775     -1.524651     -2.167654
  H       1.718852     -1.809580     -2.411044
  H       4.187018     -0.957417     -1.067754
  H       5.052645      1.215867      2.037718
  H       6.880589     -0.500368      1.915289
  H       5.983201     -1.401507      0.593861
  H       6.074289      0.678274     -0.874337
  H       6.966780      1.572982      0.454776
  H      -0.175851      0.967632      1.352206
  H      -5.561678     -1.289254     -2.155973
35
Coordinates from ORCA-job C:\Users\jabreumiranda\Radioprotection_Pipeline_Project\06_Quantum_DFT_ORCA\CHEMBL4952776_neutral_opt E -874.204361738115
  C      -6.590733     -0.144037     -0.625544
  C      -6.466963      0.680764      0.515562
  C      -5.218391      1.008813      1.049880
  C      -4.097905      0.480364      0.399537
  N      -2.742741      0.586206      0.635173
  C      -2.089987     -0.149451     -0.331383
  C      -0.630218     -0.270218     -0.400999
  C      -0.065546     -1.042690     -1.450932
  C       1.309770     -1.204913     -1.594580
  C       2.123585     -0.569229     -0.650006
  N       3.492251     -0.504350     -0.477312
  C       3.733421      0.272561      0.634010
  C       5.077251      0.578046      1.144384
  C       6.192556     -0.443129      1.049029
  C       6.238823      0.790970      0.195027
  N       2.618388      0.713848      1.190622
  C       1.589016      0.206603      0.412335
  C       0.202614      0.357733      0.538764
  N      -2.939758     -0.720796     -1.174591
  C      -4.200777     -0.350954     -0.749702
  C      -5.468678     -0.667457     -1.268918
  H      -7.586294     -0.377118     -1.012481
  H      -7.369350      1.072183      0.992994
  H      -5.125198      1.646209      1.931898
  H      -2.311418      1.114141      1.385381
  H      -0.737523     -1.520115     -2.165182
  H       1.725041     -1.801383     -2.409195
  H       4.191073     -0.949526     -1.063014
  H       5.039550      1.200059      2.041026
  H       6.877327     -0.512251      1.899391
  H       5.972673     -1.403065      0.571287
  H       6.053845      0.691599     -0.879290
  H       6.953661      1.577068      0.455448
  H      -0.187131      0.958780      1.363049
  H      -5.562334     -1.305262     -2.151469
35
Coordinates from ORCA-job C:\Users\jabreumiranda\Radioprotection_Pipeline_Project\06_Quantum_DFT_ORCA\CHEMBL4952776_neutral_opt E -874.204472278680
  C      -6.591822     -0.148366     -0.622621
  C      -6.468220      0.685546      0.512105
  C      -5.219505      1.017343      1.042619
  C      -4.098455      0.484567      0.396976
  N      -2.743070      0.591596      0.630178
  C      -2.091481     -0.151184     -0.330993
  C      -0.630738     -0.271824     -0.400286
  C      -0.066646     -1.039927     -1.454204
  C       1.308403     -1.199826     -1.597163
  C       2.123690     -0.568822     -0.650926
  N       3.490944     -0.503390     -0.477695
  C       3.733252      0.269088      0.638596
  C       5.080272      0.571846      1.147044
  C       6.203110     -0.444208      1.043426
  C       6.244299      0.793785      0.198604
  N       2.617460      0.705672      1.196517
  C       1.587248      0.202154      0.416107
  C       0.201525      0.351860      0.543044
  N      -2.940479     -0.728773     -1.169091
  C      -4.202585     -0.356447     -0.747146
  C      -5.470637     -0.676777     -1.262702
  H      -7.588354     -0.383463     -1.005764
  H      -7.370667      1.080209      0.986393
  H      -5.124939      1.661503      1.919616
  H      -2.311657      1.127116      1.375009
  H      -0.742424     -1.512483     -2.167957
  H       1.725346     -1.792199     -2.414125
  H       4.187501     -0.946246     -1.067841
  H       5.041697      1.188483      2.047619
  H       6.885008     -0.516562      1.895509
  H       5.981839     -1.401019      0.560436
  H       6.053485      0.702593     -0.875254
  H       6.953519      1.582841      0.464475
  H      -0.192003      0.946643      1.369800
  H      -5.565017     -1.321329     -2.140103
35
Coordinates from ORCA-job C:\Users\jabreumiranda\Radioprotection_Pipeline_Project\06_Quantum_DFT_ORCA\CHEMBL4952776_neutral_opt E -874.204518082146
  C      -6.592782     -0.158056     -0.614926
  C      -6.469022      0.692057      0.507224
  C      -5.219583      1.032143      1.030463
  C      -4.098455      0.491788      0.391782
  N      -2.743193      0.602744      0.620679
  C      -2.092091     -0.152437     -0.330763
  C      -0.630583     -0.272180     -0.400652
  C      -0.067088     -1.032985     -1.460049
  C       1.308070     -1.190475     -1.603165
  C       2.124443     -0.566476     -0.653671
  N       3.489780     -0.501720     -0.479702
  C       3.732435      0.262790      0.643358
  C       5.081685      0.561263      1.152593
  C       6.211389     -0.448027      1.034973
  C       6.247502      0.798989      0.207335
  N       2.616753      0.693832      1.203319
  C       1.586951      0.196440      0.419297
  C       0.201693      0.344634      0.547427
  N      -2.941465     -0.742048     -1.158818
  C      -4.203679     -0.365436     -0.740508
  C      -5.471868     -0.694222     -1.249046
  H      -7.590327     -0.398631     -0.991743
  H      -7.371474      1.092142      0.976521
  H      -5.123066      1.688749      1.897930
  H      -2.311962      1.152377      1.355238
  H      -0.746923     -1.498908     -2.174231
  H       1.726903     -1.776668     -2.423695
  H       4.184108     -0.941246     -1.075116
  H       5.042658      1.166745      2.060680
  H       6.889385     -0.529114      1.889020
  H       5.990021     -1.398040      0.539207
  H       6.051928      0.721115     -0.866472
  H       6.950193      1.589887      0.483856
  H      -0.195571      0.930231      1.378738
  H      -5.566864     -1.351256     -2.116882
35
Coordinates from ORCA-job C:\Users\jabreumiranda\Radioprotection_Pipeline_Project\06_Quantum_DFT_ORCA\CHEMBL4952776_neutral_opt E -874.204529741939
  C      -6.593184     -0.166274     -0.608821
  C      -6.469185      0.694670      0.504795
  C      -5.219364      1.041298      1.023088
  C      -4.098371      0.496297      0.388272
  N      -2.743156      0.611049      0.614454
  C      -2.091956     -0.151900     -0.330865
  C      -0.630434     -0.270246     -0.401766
  C      -0.067042     -1.026269     -1.464515
  C       1.308170     -1.182931     -1.608359
  C       2.124651     -0.563182     -0.656227
  N       3.489741     -0.499853     -0.481724
  C       3.732412      0.259213      0.645161
  C       5.081669      0.554497      1.156527
  C       6.212809     -0.452260      1.031612
  C       6.247873      0.800683      0.213627
  N       2.616820      0.687940      1.206532
  C       1.587233      0.194828      0.419980
  C       0.201980      0.342449      0.548994
  N      -2.941940     -0.750408     -1.151999
  C      -4.203840     -0.371450     -0.735485
  C      -5.472126     -0.706895     -1.239140
  H      -7.591064     -0.411554     -0.981647
  H      -7.371674      1.098012      0.971182
  H      -5.122109      1.706315      1.884041
  H      -2.312133      1.170375      1.341780
  H      -0.748068     -1.488694     -2.179852
  H       1.727651     -1.765367     -2.431241
  H       4.183276     -0.937395     -1.079504
  H       5.042959      1.153323      2.068986
  H       6.889262     -0.539400      1.886225
  H       5.992296     -1.397984      0.527426
  H       6.051875      0.729444     -0.860512
  H       6.948559      1.591139      0.496273
  H      -0.196441      0.922908      1.383398
  H      -5.567250     -1.372379     -2.100495
35
Coordinates from ORCA-job C:\Users\jabreumiranda\Radioprotection_Pipeline_Project\06_Quantum_DFT_ORCA\CHEMBL4952776_neutral_opt E -874.204537566337
  C      -6.593496     -0.177799     -0.600721
  C      -6.469307      0.696726      0.502167
  C      -5.219254      1.052303      1.014109
  C      -4.098374      0.501870      0.383781
  N      -2.743129      0.622294      0.606446
  C      -2.091617     -0.150407     -0.330984
  C      -0.630264     -0.266533     -0.403342
  C      -0.066849     -1.016176     -1.470547
  C       1.308306     -1.172247     -1.615520
  C       2.124570     -0.557875     -0.659646
  N       3.489875     -0.496937     -0.484415
  C       3.732625      0.255101      0.646987
  C       5.081407      0.546114      1.161395
  C       6.212908     -0.458611      1.028901
  C       6.247806      0.801263      0.221283
  N       2.617152      0.681512      1.210436
  C       1.587610      0.193943      0.420639
  C       0.202244      0.340729      0.550972
  N      -2.942212     -0.760659     -1.143274
  C      -4.203786     -0.379133     -0.728955
  C      -5.472164     -0.723531     -1.226372
  H      -7.591583     -0.429592     -0.968609
  H      -7.371922      1.103808      0.965101
  H      -5.121533      1.727926      1.866708
  H      -2.312496      1.194614      1.323820
  H      -0.748566     -1.474299     -2.188018
  H       1.728333     -1.749760     -2.441575
  H       4.182716     -0.931964     -1.084825
  H       5.043610      1.137522      2.078662
  H       6.888112     -0.552988      1.883728
  H       5.993792     -1.399348      0.514890
  H       6.052423      0.736429     -0.853359
  H       6.947269      1.590452      0.510387
  H      -0.197064      0.914876      1.389407
  H      -5.567239     -1.399623     -2.079457
35
Coordinates from ORCA-job C:\Users\jabreumiranda\Radioprotection_Pipeline_Project\06_Quantum_DFT_ORCA\CHEMBL4952776_neutral_opt E -874.204537162690
  C      -6.593562     -0.183156     -0.597155
  C      -6.469331      0.697382      0.501052
  C      -5.219341      1.057035      1.010230
  C      -4.098461      0.504292      0.381792
  N      -2.743116      0.627154      0.603078
  C      -2.091518     -0.149552     -0.331003
  C      -0.630209     -0.264615     -0.403953
  C      -0.066687     -1.011332     -1.473243
  C       1.308397     -1.167027     -1.618841
  C       2.124357     -0.555117     -0.661051
  N       3.489914     -0.495134     -0.485570
  C       3.732729      0.253485      0.647870
  C       5.081287      0.542623      1.163409
  C       6.212465     -0.461761      1.028308
  C       6.247655      0.800818      0.224226
  N       2.617292      0.678807      1.212605
  C       1.587632      0.193844      0.421207
  C       0.202185      0.340191      0.552045
  N      -2.942143     -0.765099     -1.139447
  C      -4.203757     -0.382654     -0.726130
  C      -5.472210     -0.731084     -1.220793
  H      -7.591646     -0.437969     -0.962982
  H      -7.372006      1.106012      0.962550
  H      -5.121672      1.737253      1.859170
  H      -2.312611      1.205410      1.315758
  H      -0.748203     -1.467585     -2.192102
  H       1.728551     -1.742103     -2.446515
  H       4.182686     -0.928646     -1.087149
  H       5.044082      1.131290      2.082463
  H       6.887662     -0.558983      1.882842
  H       5.993947     -1.400712      0.510753
  H       6.052780      0.737976     -0.850638
  H       6.947256      1.589155      0.515324
  H      -0.197255      0.911601      1.392302
  H      -5.567248     -1.411798     -2.070211
35
Coordinates from ORCA-job C:\Users\jabreumiranda\Radioprotection_Pipeline_Project\06_Quantum_DFT_ORCA\CHEMBL4952776_neutral_opt E -874.204541272266
  C      -6.593614     -0.185910     -0.595297
  C      -6.469366      0.697550      0.500654
  C      -5.219440      1.059248      1.008398
  C      -4.098540      0.505478      0.380803
  N      -2.743098      0.629590      0.601291
  C      -2.091557     -0.149137     -0.331060
  C      -0.630187     -0.263684     -0.404250
  C      -0.066580     -1.008813     -1.474665
  C       1.308485     -1.164201     -1.620549
  C       2.124227     -0.553557     -0.661745
  N       3.489878     -0.493943     -0.486109
  C       3.732722      0.252939      0.648334
  C       5.081286      0.541115      1.164285
  C       6.212106     -0.463462      1.028309
  C       6.247765      0.800210      0.225517
  N       2.617296      0.677590      1.213837
  C       1.587543      0.193824      0.421656
  C       0.202047      0.339823      0.552679
  N      -2.942055     -0.767217     -1.137675
  C      -4.203804     -0.384390     -0.724882
  C      -5.472336     -0.734828     -1.218087
  H      -7.591681     -0.442300     -0.960093
  H      -7.372051      1.106873      0.961540
  H      -5.121886      1.741707      1.855545
  H      -2.312565      1.211085      1.311321
  H      -0.747750     -1.464205     -2.194388
  H       1.728647     -1.737966     -2.449118
  H       4.182772     -0.926511     -1.088231
  H       5.044353      1.128673      2.084070
  H       6.887444     -0.561982      1.882597
  H       5.993681     -1.401775      0.509528
  H       6.053158      0.738173     -0.849449
  H       6.947773      1.587957      0.517233
  H      -0.197370      0.909841      1.393894
  H      -5.567402     -1.417794     -2.065692
35
Coordinates from ORCA-job C:\Users\jabreumiranda\Radioprotection_Pipeline_Project\06_Quantum_DFT_ORCA\CHEMBL4952776_neutral_opt E -874.204540734981
  C      -6.593611     -0.185231     -0.595785
  C      -6.469369      0.697390      0.500855
  C      -5.219464      1.058519      1.009004
  C      -4.098563      0.505087      0.381105
  N      -2.743101      0.628792      0.601844
  C      -2.091624     -0.149280     -0.331030
  C      -0.630196     -0.263911     -0.404139
  C      -0.066570     -1.009226     -1.474409
  C       1.308517     -1.164629     -1.620207
  C       2.124216     -0.553714     -0.661555
  N       3.489858     -0.493861     -0.485983
  C       3.732683      0.253359      0.648209
  C       5.081320      0.541814      1.163886
  C       6.211910     -0.463167      1.028751
  C       6.247836      0.799876      0.224915
  N       2.617254      0.678022      1.213718
  C       1.587487      0.193903      0.421717
  C       0.201975      0.339781      0.552693
  N      -2.942025     -0.766778     -1.138111
  C      -4.203840     -0.384046     -0.725269
  C      -5.472390     -0.733902     -1.218854
  H      -7.591642     -0.441238     -0.960956
  H      -7.372028      1.106504      0.961974
  H      -5.122002      1.740328      1.856683
  H      -2.312484      1.209936      1.312114
  H      -0.747493     -1.464888     -2.194191
  H       1.728592     -1.738575     -2.448692
  H       4.182930     -0.926379     -1.087940
  H       5.044351      1.130057      2.083240
  H       6.887420     -0.561154      1.882971
  H       5.993314     -1.401982      0.510940
  H       6.053252      0.737176     -0.850025
  H       6.948176      1.587606      0.515887
  H      -0.197305      0.910042      1.393804
  H      -5.567485     -1.416234     -2.066964
