32
Coordinates from ORCA-job C:\Users\jabreumiranda\Radioprotection_Pipeline_Project\06_Quantum_DFT_ORCA\CHEMBL247484_neutral_opt E -1102.912956846086
  O          -2.06445158004457     -2.98223577454924     -1.51926744438283
  C          -1.60055207949867     -1.91796135837285     -1.03973525764317
  C          -0.18663903668288     -1.66967658952323     -0.89787572489214
  C           0.28444973836101     -0.49789254607080     -0.37104906497568
  C           1.69422765732068     -0.13618598884653     -0.18227516663274
  C           2.72105239147614     -1.01934734479709     -0.56792494182709
  C           4.06185294557865     -0.67572204308166     -0.39075148878866
  O           5.09223926525778     -1.48313860398363     -0.74201622820955
  C           4.39832871602451      0.56793219991717      0.17947073203638
  O           5.69717319018751      0.89770694005656      0.34831029162978
  C           3.36928709763806      1.44705483034458      0.56515962542911
  O           3.79984780502816      2.61804738477744      1.10585190383763
  C           2.03006545643182      1.10620410357954      0.38857082091732
  O          -0.56431949764780      0.47544012568736      0.04062248025845
  C          -1.91658720082654      0.33518265535369     -0.05195106054136
  C          -2.70249131247547      1.39045664848944      0.39727191788588
  C          -4.09799599742592      1.25701729317193      0.30672760488449
  O          -4.84005189164858      2.29015594636319      0.74936627800947
  C          -4.69117107546686      0.09601834297343     -0.22227254362077
  C          -3.88661173457023     -0.95400595632327     -0.66785781998402
  O          -4.43415800630889     -2.06297838882408     -1.17104675636887
  C          -2.46798993205960     -0.84469655264075     -0.58646825281838
  H           0.50132285122746     -2.44726437577681     -1.22424436335633
  H           2.49553333480642     -1.98907908305716     -1.01411183192217
  H           4.74793248143231     -2.30618468216108     -1.12108640785340
  H           5.73309152966757      1.78250282800966      0.75081951707459
  H           3.05107806612492      3.17908458803527      1.35867158026805
  H           1.25413507804030      1.80729193360096      0.69602276790812
  H          -2.25217776215320      2.29378900167445      0.80807426190315
  H          -5.78469819865557      2.09550930617685      0.64348425729022
  H          -5.77796885989106      0.00728226350722     -0.28685519188608
  H          -3.66375343924749     -2.66040710371054     -1.41683449362941
