39
Coordinates from ORCA-job C:\Users\jabreumiranda\Radioprotection_Pipeline_Project\06_Quantum_DFT_ORCA\CHEMBL4087126_neutral_opt E -1108.252589956503
  O      -4.116300     -2.402000      1.720300
  C      -3.523700     -1.498000      1.141600
  C      -2.058200     -1.483200      1.034000
  C      -1.463900     -0.471500      0.384700
  C       0.003200     -0.394600      0.251000
  C       0.768300     -1.514400     -0.100300
  C       2.159300     -1.418300     -0.231200
  C       2.826100     -0.201700     -0.021800
  C       4.288200     -0.103100     -0.160200
  C       4.872800      0.854000     -1.006600
  C       6.260900      0.947700     -1.138900
  C       7.089100      0.085400     -0.425100
  C       6.530700     -0.870100      0.419800
  C       5.142300     -0.963300      0.550100
  C       2.053400      0.918100      0.320100
  C       0.662700      0.824600      0.452000
  O      -2.142400      0.592300     -0.190400
  C      -3.513500      0.611600     -0.116500
  C      -4.163300      1.690500     -0.719100
  C      -5.553600      1.758800     -0.671500
  O      -6.231900      2.792800     -1.246300
  C      -6.299500      0.771000     -0.033700
  C      -5.646000     -0.302500      0.565200
  O      -6.428700     -1.243700      1.177200
  C      -4.250800     -0.383200      0.523700
  H      -1.525400     -2.300500      1.502500
  H       0.294700     -2.474600     -0.293000
  H       2.721900     -2.305500     -0.516900
  H       4.244300      1.530200     -1.582600
  H       6.693300      1.692600     -1.801800
  H       8.168700      0.158100     -0.527200
  H       7.174200     -1.542700      0.980900
  H       4.728100     -1.709900      1.224800
  H       2.534100      1.878000      0.500000
  H       0.102000      1.716500      0.724400
  H      -3.578600      2.458400     -1.215600
  H      -5.598500      3.402100     -1.659900
  H      -7.383500      0.836600     -0.003500
  H      -5.840600     -1.936400      1.554200
39
Coordinates from ORCA-job C:\Users\jabreumiranda\Radioprotection_Pipeline_Project\06_Quantum_DFT_ORCA\CHEMBL4087126_neutral_opt E -1108.260164684068
  O      -4.150493     -2.471475      1.708960
  C      -3.548723     -1.555367      1.126308
  C      -2.090574     -1.532352      1.014228
  C      -1.469548     -0.514601      0.372838
  C      -0.004979     -0.414152      0.225234
  C       0.775589     -1.549663     -0.040255
  C       2.162121     -1.443733     -0.163445
  C       2.810097     -0.202940     -0.031727
  C       4.281427     -0.094609     -0.163682
  C       4.860811      0.875842     -1.000618
  C       6.249385      0.978012     -1.126569
  C       7.083439      0.111376     -0.413990
  C       6.522818     -0.857715      0.423164
  C       5.133832     -0.959681      0.545389
  C       2.021314      0.932110      0.225526
  C       0.634681      0.830735      0.347189
  O      -2.134552      0.542897     -0.180023
  C      -3.498188      0.594413     -0.106920
  C      -4.116550      1.698605     -0.693978
  C      -5.512778      1.793151     -0.642797
  O      -6.172317      2.841979     -1.190650
  C      -6.284598      0.803474     -0.018441
  C      -5.653656     -0.295894      0.563429
  O      -6.423324     -1.230310      1.157448
  C      -4.246672     -0.413603      0.525069
  H      -1.548541     -2.356570      1.474297
  H       0.307625     -2.528328     -0.167260
  H       2.744255     -2.341669     -0.382718
  H       4.221770      1.554642     -1.571471
  H       6.680723      1.734953     -1.786370
  H       8.169402      0.191190     -0.511105
  H       7.168867     -1.535571      0.986690
  H       4.711063     -1.716567      1.211292
  H       2.494358      1.909702      0.344088
  H       0.052718      1.731201      0.554336
  H      -3.511174      2.467009     -1.179221
  H      -5.535100      3.453282     -1.592604
  H      -7.371033      0.891002      0.013772
  H      -5.813593     -1.920678      1.508989
39
Coordinates from ORCA-job C:\Users\jabreumiranda\Radioprotection_Pipeline_Project\06_Quantum_DFT_ORCA\CHEMBL4087126_neutral_opt E -1108.263097548186
  O      -4.190027     -2.524405      1.651112
  C      -3.567856     -1.588761      1.102246
  C      -2.120087     -1.568833      0.989649
  C      -1.470429     -0.544051      0.370407
  C      -0.008934     -0.430002      0.219345
  C       0.785615     -1.576533      0.048755
  C       2.168543     -1.463281     -0.074845
  C       2.799113     -0.205811     -0.034144
  C       4.274612     -0.089550     -0.165481
  C       4.846512      0.891659     -0.995718
  C       6.234335      1.000017     -1.120481
  C       7.074457      0.130777     -0.413374
  C       6.516016     -0.848542      0.417541
  C       5.127960     -0.958559      0.538557
  C       1.996338      0.938862      0.130586
  C       0.613060      0.831673      0.250918
  O      -2.127062      0.512672     -0.156556
  C      -3.485830      0.591963     -0.092092
  C      -4.078977      1.716773     -0.659424
  C      -5.478905      1.824448     -0.612601
  O      -6.126011      2.883419     -1.134949
  C      -6.268212      0.825250     -0.012903
  C      -5.656126     -0.295091      0.550488
  O      -6.409204     -1.239211      1.122949
  C      -4.238830     -0.432631      0.519680
  H      -1.570972     -2.401013      1.430987
  H       0.321350     -2.563911     -0.007195
  H       2.767094     -2.365182     -0.224964
  H       4.197965      1.568206     -1.559366
  H       6.661507      1.763840     -1.776726
  H       8.160819      0.216267     -0.509696
  H       7.164490     -1.527805      0.978543
  H       4.700937     -1.719784      1.197499
  H       2.462806      1.926011      0.178448
  H       0.012346      1.733740      0.385485
  H      -3.461022      2.488249     -1.124341
  H      -5.489044      3.506728     -1.518865
  H      -7.354247      0.925279      0.014795
  H      -5.784198     -1.932774      1.460129
39
Coordinates from ORCA-job C:\Users\jabreumiranda\Radioprotection_Pipeline_Project\06_Quantum_DFT_ORCA\CHEMBL4087126_neutral_opt E -1108.264157906446
  O      -4.208971     -2.544066      1.600522
  C      -3.575797     -1.615436      1.044644
  C      -2.132204     -1.595240      0.944032
  C      -1.470352     -0.561508      0.346396
  C      -0.010088     -0.443344      0.199914
  C       0.798613     -1.592360      0.137907
  C       2.180844     -1.474908      0.019488
  C       2.797773     -0.210949     -0.040793
  C       4.273863     -0.089368     -0.165011
  C       4.845925      0.894761     -0.992310
  C       6.233663      1.007558     -1.109402
  C       7.073578      0.141610     -0.398294
  C       6.514319     -0.839858      0.429352
  C       5.126599     -0.955999      0.543489
  C       1.981153      0.934797      0.016407
  C       0.598190      0.823790      0.130259
  O      -2.128360      0.503439     -0.158620
  C      -3.485908      0.596921     -0.089619
  C      -4.071925      1.740662     -0.622225
  C      -5.471798      1.854434     -0.561329
  O      -6.117638      2.927912     -1.048343
  C      -6.263429      0.842274      0.016267
  C      -5.657441     -0.297690      0.543161
  O      -6.398564     -1.262580      1.090475
  C      -4.236600     -0.442572      0.498738
  H      -1.577260     -2.430290      1.372632
  H       0.340921     -2.583677      0.158991
  H       2.792007     -2.377712     -0.050027
  H       4.195719      1.565671     -1.559694
  H       6.661252      1.772165     -1.764085
  H       8.159663      0.231263     -0.488890
  H       7.162368     -1.515726      0.994481
  H       4.696541     -1.715989      1.200986
  H       2.439619      1.926012     -0.011908
  H      -0.016690      1.724116      0.182503
  H      -3.452875      2.520813     -1.069417
  H      -5.484967      3.563875     -1.418603
  H      -7.348541      0.948963      0.052340
  H      -5.763300     -1.971665      1.389985
39
Coordinates from ORCA-job C:\Users\jabreumiranda\Radioprotection_Pipeline_Project\06_Quantum_DFT_ORCA\CHEMBL4087126_neutral_opt E -1108.264586954599
  O      -4.236106     -2.608133      1.435926
  C      -3.582897     -1.633865      0.985197
  C      -2.143183     -1.624140      0.885523
  C      -1.469528     -0.566287      0.340504
  C      -0.010722     -0.449771      0.197487
  C       0.812389     -1.589084      0.275965
  C       2.193832     -1.470615      0.158691
  C       2.800202     -0.214715     -0.040305
  C       4.275440     -0.090728     -0.163730
  C       4.847798      0.896365     -0.988846
  C       6.234954      1.011296     -1.104195
  C       7.075753      0.146194     -0.395027
  C       6.518040     -0.837364      0.429580
  C       5.131154     -0.957193      0.543298
  C       1.969476      0.919549     -0.122980
  C       0.586562      0.807391     -0.010650
  O      -2.129490      0.520378     -0.122027
  C      -3.487941      0.618607     -0.059839
  C      -4.070767      1.780066     -0.553986
  C      -5.471857      1.882647     -0.505764
  O      -6.119079      2.967408     -0.963452
  C      -6.264605      0.846988      0.027241
  C      -5.662021     -0.307293      0.521199
  O      -6.390675     -1.295160      1.042436
  C      -4.237285     -0.444498      0.480163
  H      -1.584590     -2.477953      1.268385
  H       0.362274     -2.575422      0.401009
  H       2.814576     -2.368046      0.192516
  H       4.196681      1.562924     -1.558584
  H       6.661667      1.776794     -1.757722
  H       8.161147      0.238145     -0.484707
  H       7.167224     -1.511700      0.994430
  H       4.702119     -1.714858      1.202650
  H       2.418977      1.905828     -0.254206
  H      -0.040700      1.697835     -0.065181
  H      -3.452158      2.578301     -0.966855
  H      -5.490037      3.623129     -1.304275
  H      -7.350046      0.951695      0.056750
  H      -5.736678     -1.994614      1.347782
39
Coordinates from ORCA-job C:\Users\jabreumiranda\Radioprotection_Pipeline_Project\06_Quantum_DFT_ORCA\CHEMBL4087126_neutral_opt E -1108.265000127314
  O      -4.234822     -2.603858      1.443127
  C      -3.585011     -1.639969      0.969473
  C      -2.143394     -1.631965      0.873358
  C      -1.471761     -0.568433      0.339921
  C      -0.012492     -0.453356      0.200219
  C       0.815273     -1.587284      0.303712
  C       2.196329     -1.467684      0.186083
  C       2.802167     -0.215568     -0.040211
  C       4.276679     -0.090682     -0.164295
  C       4.849969      0.881859     -1.006664
  C       6.236850      0.998154     -1.122858
  C       7.078708      0.148135     -0.397778
  C       6.522463     -0.821193      0.443682
  C       5.135781     -0.941401      0.558529
  C       1.966764      0.912922     -0.149251
  C       0.583843      0.799338     -0.035118
  O      -2.129531      0.526572     -0.111779
  C      -3.488614      0.620656     -0.051160
  C      -4.071441      1.789808     -0.528931
  C      -5.471304      1.893899     -0.479928
  O      -6.115738      2.988230     -0.923682
  C      -6.266072      0.852189      0.034750
  C      -5.665697     -0.312002      0.507921
  O      -6.403446     -1.312099      0.995639
  C      -4.242469     -0.446222      0.471614
  H      -1.588894     -2.489324      1.252034
  H       0.371648     -2.573077      0.450702
  H       2.816321     -2.364251      0.240238
  H       4.200866      1.536317     -1.591929
  H       6.662469      1.752671     -1.789399
  H       8.163870      0.240717     -0.488256
  H       7.172536     -1.484000      1.020643
  H       4.711246     -1.687315      1.233491
  H       2.410649      1.898400     -0.301421
  H      -0.043788      1.687622     -0.111110
  H      -3.452018      2.593829     -0.929004
  H      -5.482807      3.644822     -1.255393
  H      -7.351426      0.957357      0.060460
  H      -5.753806     -2.033713      1.256971
39
Coordinates from ORCA-job C:\Users\jabreumiranda\Radioprotection_Pipeline_Project\06_Quantum_DFT_ORCA\CHEMBL4087126_neutral_opt E -1108.265078158562
  O      -4.238379     -2.619387      1.407966
  C      -3.590179     -1.657367      0.930936
  C      -2.146859     -1.646718      0.846259
  C      -1.474938     -0.576111      0.329209
  C      -0.014876     -0.460100      0.194568
  C       0.818022     -1.588785      0.314808
  C       2.198537     -1.466338      0.198963
  C       2.803317     -0.216161     -0.042676
  C       4.277245     -0.088974     -0.163574
  C       4.852438      0.869688     -1.020833
  C       6.239265      0.988543     -1.134276
  C       7.081184      0.153824     -0.391703
  C       6.524443     -0.802205      0.464457
  C       5.137704     -0.923664      0.576548
  C       1.963304      0.907026     -0.168381
  C       0.580497      0.790394     -0.055527
  O      -2.129423      0.525573     -0.111637
  C      -3.488347      0.617919     -0.051032
  C      -4.070105      1.794058     -0.514789
  C      -5.469098      1.901591     -0.462341
  O      -6.110542      3.004000     -0.893627
  C      -6.266018      0.858828      0.045192
  C      -5.667384     -0.311482      0.506784
  O      -6.410287     -1.308179      0.995707
  C      -4.246927     -0.450549      0.460232
  H      -1.598143     -2.510926      1.216453
  H       0.381901     -2.575373      0.476766
  H       2.818400     -2.361895      0.268825
  H       4.206122      1.512599     -1.621822
  H       6.664797      1.732991     -1.812032
  H       8.166438      0.247838     -0.480104
  H       7.174055     -1.453747      1.054555
  H       4.715873     -1.659588      1.264159
  H       2.401321      1.893037     -0.333492
  H      -0.047430      1.677011     -0.145736
  H      -3.449460      2.600960     -0.907312
  H      -5.474040      3.658645     -1.222194
  H      -7.350671      0.968908      0.076794
  H      -5.761859     -2.025784      1.268306
39
Coordinates from ORCA-job C:\Users\jabreumiranda\Radioprotection_Pipeline_Project\06_Quantum_DFT_ORCA\CHEMBL4087126_neutral_opt E -1108.265154586380
  O      -4.243557     -2.632390      1.376625
  C      -3.593108     -1.661329      0.921248
  C      -2.150248     -1.654117      0.832286
  C      -1.476019     -0.577775      0.329789
  C      -0.015863     -0.461818      0.195422
  C       0.820660     -1.585380      0.339625
  C       2.200658     -1.462221      0.222848
  C       2.804213     -0.216217     -0.043537
  C       4.277552     -0.088680     -0.164590
  C       4.853072      0.859866     -1.032947
  C       6.239761      0.979445     -1.146407
  C       7.082293      0.155178     -0.392666
  C       6.525562     -0.790955      0.474633
  C       5.138899     -0.912642      0.586569
  C       1.961163      0.901764     -0.192535
  C       0.578621      0.784389     -0.078519
  O      -2.128772      0.530269     -0.096560
  C      -3.487575      0.621912     -0.039509
  C      -4.068034      1.802909     -0.493128
  C      -5.467331      1.909239     -0.445229
  O      -6.107361      3.016111     -0.867671
  C      -6.266287      0.860963      0.047665
  C      -5.668984     -0.314380      0.498896
  O      -6.413474     -1.318164      0.970569
  C      -4.248752     -0.451281      0.457660
  H      -1.604907     -2.525995      1.189121
  H       0.389348     -2.570386      0.522924
  H       2.820943     -2.355794      0.312948
  H       4.207703      1.494941     -1.643452
  H       6.664725      1.716349     -1.832794
  H       8.167589      0.249593     -0.481010
  H       7.175123     -1.434640      1.073449
  H       4.718641     -1.640991      1.283386
  H       2.395536      1.885997     -0.377421
  H      -0.049909      1.668445     -0.187076
  H      -3.446280      2.614322     -0.874654
  H      -5.469160      3.673151     -1.187985
  H      -7.351137      0.970627      0.074981
  H      -5.765406     -2.040216      1.231446
39
Coordinates from ORCA-job C:\Users\jabreumiranda\Radioprotection_Pipeline_Project\06_Quantum_DFT_ORCA\CHEMBL4087126_neutral_opt E -1108.265195996064
  O      -4.250057     -2.655324      1.320213
  C      -3.597410     -1.673633      0.890711
  C      -2.155072     -1.667992      0.800041
  C      -1.477308     -0.582020      0.322960
  C      -0.017124     -0.465055      0.191387
  C       0.824477     -1.579067      0.377417
  C       2.204117     -1.454655      0.261682
  C       2.805458     -0.216652     -0.045290
  C       4.278156     -0.088294     -0.165088
  C       4.854405      0.839730     -1.054871
  C       6.241028      0.960599     -1.167038
  C       7.083839      0.158055     -0.390124
  C       6.526458     -0.767638      0.498867
  C       5.139791     -0.890376      0.609046
  C       1.958033      0.891701     -0.235029
  C       0.575685      0.773081     -0.121400
  O      -2.128508      0.535255     -0.079586
  C      -3.486930      0.626914     -0.025588
  C      -4.065376      1.816873     -0.458252
  C      -5.464912      1.923045     -0.412134
  O      -6.102956      3.038253     -0.815372
  C      -6.266465      0.866108      0.057991
  C      -5.671096     -0.318560      0.487881
  O      -6.417006     -1.331500      0.936870
  C      -4.251124     -0.454697      0.448776
  H      -1.614607     -2.551721      1.134458
  H       0.400167     -2.559992      0.596245
  H       2.825398     -2.343416      0.386613
  H       4.210684      1.458305     -1.683979
  H       6.665630      1.681579     -1.870406
  H       8.169186      0.253478     -0.477207
  H       7.175385     -1.394461      1.116045
  H       4.720956     -1.602706      1.323233
  H       2.387137      1.871679     -0.452511
  H      -0.053866      1.651731     -0.262270
  H      -3.442249      2.635359     -0.822134
  H      -5.462861      3.699228     -1.123618
  H      -7.351294      0.976600      0.083633
  H      -5.769869     -2.059714      1.182232
39
Coordinates from ORCA-job C:\Users\jabreumiranda\Radioprotection_Pipeline_Project\06_Quantum_DFT_ORCA\CHEMBL4087126_neutral_opt E -1108.265224638876
  O      -4.260735     -2.697612      1.208138
  C      -3.604839     -1.699378      0.822732
  C      -2.162969     -1.694661      0.732483
  C      -1.479239     -0.591936      0.303929
  C      -0.018910     -0.472050      0.180076
  C       0.830610     -1.564596      0.443953
  C       2.210036     -1.437333      0.332004
  C       2.806931     -0.217721     -0.049406
  C       4.279100     -0.086983     -0.165072
  C       4.857497      0.794647     -1.099486
  C       6.244197      0.917721     -1.207943
  C       7.085995      0.163932     -0.382260
  C       6.526421     -0.715381      0.551583
  C       5.139637     -0.840352      0.657604
  C       1.952450      0.869229     -0.315111
  C       0.570217      0.747994     -0.203604
  O      -2.128189      0.541083     -0.054553
  C      -3.485950      0.633977     -0.003520
  C      -4.060402      1.841028     -0.392004
  C      -5.459996      1.948723     -0.344887
  O      -6.094089      3.080735     -0.705330
  C      -6.265923      0.876729      0.082238
  C      -5.674400     -0.325292      0.467864
  O      -6.423049     -1.353432      0.875087
  C      -4.254826     -0.462692      0.427808
  H      -1.630764     -2.598201      1.024372
  H       0.417286     -2.532933      0.729636
  H       2.833868     -2.312545      0.522699
  H       4.217122      1.375055     -1.767278
  H       6.669405      1.602130     -1.946628
  H       8.171437      0.261168     -0.466238
  H       7.173407     -1.304079      1.207184
  H       4.721449     -1.515994      1.407027
  H       2.373265      1.837704     -0.592309
  H      -0.061662      1.612744     -0.405810
  H      -3.434655      2.671886     -0.721812
  H      -5.451090      3.749852     -0.989004
  H      -7.350460      0.989846      0.109001
  H      -5.778282     -2.092911      1.091240
39
Coordinates from ORCA-job C:\Users\jabreumiranda\Radioprotection_Pipeline_Project\06_Quantum_DFT_ORCA\CHEMBL4087126_neutral_opt E -1108.265233602992
  O      -4.260519     -2.697411      1.210218
  C      -3.604722     -1.700349      0.822111
  C      -2.162454     -1.695415      0.733161
  C      -1.478748     -0.593267      0.303505
  C      -0.018308     -0.473439      0.179418
  C       0.830336     -1.567624      0.438285
  C       2.210052     -1.440023      0.326292
  C       2.806073     -0.218654     -0.049964
  C       4.278605     -0.087070     -0.165203
  C       4.856328      0.791763     -1.102536
  C       6.243100      0.915539     -1.210368
  C       7.084795      0.165488     -0.381324
  C       6.525550     -0.710831      0.555420
  C       5.138751     -0.836788      0.661051
  C       1.952200      0.869829     -0.311137
  C       0.569891      0.748197     -0.199932
  O      -2.127461      0.539625     -0.056573
  C      -3.485299      0.633287     -0.004888
  C      -4.059155      1.840451     -0.393444
  C      -5.458604      1.949329     -0.345214
  O      -6.092135      3.081827     -0.704707
  C      -6.264754      0.877664      0.082245
  C      -5.673729     -0.324421      0.467851
  O      -6.423074     -1.351645      0.876177
  C      -4.254033     -0.463205      0.427414
  H      -1.630327     -2.598796      1.025931
  H       0.415845     -2.536518      0.720183
  H       2.834833     -2.315352      0.513265
  H       4.215212      1.369146     -1.772199
  H       6.668391      1.597571     -1.951193
  H       8.170194      0.263413     -0.464876
  H       7.172735     -1.296378      1.213625
  H       4.719792     -1.509972      1.412182
  H       2.373992      1.838929     -0.584542
  H      -0.062511      1.613442     -0.398800
  H      -3.432913      2.670739     -0.723715
  H      -5.449143      3.751497     -0.987098
  H      -7.349235      0.991000      0.109892
  H      -5.779650     -2.091478      1.093886
39
Coordinates from ORCA-job C:\Users\jabreumiranda\Radioprotection_Pipeline_Project\06_Quantum_DFT_ORCA\CHEMBL4087126_neutral_opt E -1108.265243911446
  O      -4.262323     -2.705226      1.189399
  C      -3.606069     -1.706745      0.806593
  C      -2.163247     -1.701743      0.720004
  C      -1.478392     -0.597284      0.298768
  C      -0.017411     -0.476795      0.176434
  C       0.831388     -1.568555      0.443969
  C       2.211426     -1.439884      0.332760
  C       2.805097     -0.220088     -0.050905
  C       4.278110     -0.086743     -0.164966
  C       4.855069      0.777250     -1.116283
  C       6.241946      0.902294     -1.222847
  C       7.083162      0.168690     -0.378957
  C       6.524164     -0.692595      0.571602
  C       5.137351     -0.820244      0.676441
  C       1.951109      0.866015     -0.320733
  C       0.568668      0.743347     -0.210408
  O      -2.126386      0.538668     -0.054327
  C      -3.484302      0.633616     -0.002128
  C      -4.056437      1.844386     -0.381292
  C      -5.455650      1.955221     -0.331616
  O      -6.087561      3.091551     -0.681176
  C      -6.262920      0.881024      0.087107
  C      -5.673433     -0.324498      0.463265
  O      -6.424543     -1.353553      0.863855
  C      -4.253663     -0.465624      0.421998
  H      -1.632794     -2.608208      1.006018
  H       0.416729     -2.535175      0.732800
  H       2.838541     -2.312000      0.526725
  H       4.213085      1.341134     -1.796469
  H       6.667620      1.572305     -1.974336
  H       8.168496      0.267779     -0.461714
  H       7.171421     -1.264947      1.241225
  H       4.716900     -1.481258      1.437423
  H       2.373522      1.832980     -0.600550
  H      -0.065054      1.605823     -0.416485
  H      -3.428854      2.676212     -0.704999
  H      -5.444082      3.764066     -0.955525
  H      -7.347295      0.994889      0.116164
  H      -5.783489     -2.095985      1.077564
39
Coordinates from ORCA-job C:\Users\jabreumiranda\Radioprotection_Pipeline_Project\06_Quantum_DFT_ORCA\CHEMBL4087126_neutral_opt E -1108.265248931306
  O      -4.263574     -2.712293      1.168850
  C      -3.606964     -1.711359      0.793524
  C      -2.163978     -1.706355      0.707517
  C      -1.478438     -0.599161      0.294947
  C      -0.017258     -0.478251      0.173760
  C       0.832069     -1.566923      0.451797
  C       2.212167     -1.437824      0.341501
  C       2.804843     -0.220804     -0.052102
  C       4.277998     -0.086786     -0.165129
  C       4.855299      0.765185     -1.126989
  C       6.242231      0.890862     -1.232431
  C       7.082749      0.170232     -0.376804
  C       6.523286     -0.678905      0.584310
  C       5.136453     -0.807518      0.687995
  C       1.950450      0.862228     -0.332499
  C       0.567961      0.739269     -0.222562
  O      -2.125933      0.539560     -0.050419
  C      -3.483865      0.634653      0.001731
  C      -4.055206      1.848459     -0.368841
  C      -5.454354      1.959806     -0.318734
  O      -6.085533      3.098988     -0.660164
  C      -6.262265      0.882983      0.091890
  C      -5.673519     -0.325513      0.459355
  O      -6.425551     -1.356997      0.852177
  C      -4.253832     -0.467224      0.417672
  H      -1.634615     -2.615736      0.986216
  H       0.417825     -2.530973      0.749562
  H       2.840389     -2.307120      0.544365
  H       4.213442      1.318548     -1.815879
  H       6.668529      1.551173     -1.992109
  H       8.168095      0.269974     -0.458656
  H       7.170169     -1.240903      1.263000
  H       4.714985     -1.458649      1.456891
  H       2.372899      1.826842     -0.620239
  H      -0.066413      1.599237     -0.436802
  H      -3.426978      2.682219     -0.686255
  H      -5.441691      3.773583     -0.928461
  H      -7.346608      0.996966      0.121609
  H      -5.785364     -2.101371      1.060807
39
Coordinates from ORCA-job C:\Users\jabreumiranda\Radioprotection_Pipeline_Project\06_Quantum_DFT_ORCA\CHEMBL4087126_neutral_opt E -1108.265256348147
  O      -4.263527     -2.714418      1.162018
  C      -3.606865     -1.712359      0.789832
  C      -2.163898     -1.707129      0.703987
  C      -1.478400     -0.598706      0.294673
  C      -0.017217     -0.477627      0.173872
  C       0.832196     -1.565221      0.455866
  C       2.212232     -1.436417      0.345511
  C       2.804886     -0.220608     -0.051955
  C       4.278005     -0.086851     -0.165096
  C       4.855452      0.761978     -1.129669
  C       6.242379      0.887469     -1.235186
  C       7.082735      0.169697     -0.376999
  C       6.523172     -0.676377      0.586759
  C       5.136343     -0.804708      0.690597
  C       1.950491      0.861472     -0.336033
  C       0.567992      0.738751     -0.226095
  O      -2.125855      0.540879     -0.047869
  C      -3.483853      0.635456      0.003777
  C      -4.055291      1.850020     -0.364336
  C      -5.454514      1.960771     -0.315129
  O      -6.085897      3.100347     -0.654925
  C      -6.262372      0.882840      0.092684
  C      -5.673547     -0.326370      0.457699
  O      -6.425593     -1.359064      0.847446
  C      -4.253854     -0.467521      0.416513
  H      -1.634397     -2.617229      0.980102
  H       0.417728     -2.528111      0.756983
  H       2.840711     -2.304812      0.551453
  H       4.213519      1.312886     -1.820469
  H       6.668891      1.545288     -1.996903
  H       8.168093      0.269255     -0.458940
  H       7.170031     -1.236085      1.267357
  H       4.714550     -1.453313      1.461464
  H       2.373273      1.825021     -0.626870
  H      -0.066577      1.597840     -0.443236
  H      -3.427080      2.684631     -0.679545
  H      -5.442129      3.775768     -0.921288
  H      -7.346778      0.996367      0.121918
  H      -5.785132     -2.103709      1.054433
