
                                 *****************
                                 * O   R   C   A *
                                 *****************

                                            #,                                       
                                            ###                                      
                                            ####                                     
                                            #####                                    
                                            ######                                   
                                           ########,                                 
                                     ,,################,,,,,                         
                               ,,#################################,,                 
                          ,,##########################################,,             
                       ,#########################################, ''#####,          
                    ,#############################################,,   '####,        
                  ,##################################################,,,,####,       
                ,###########''''           ''''###############################       
              ,#####''   ,,,,##########,,,,          '''####'''          '####       
            ,##' ,,,,###########################,,,                        '##       
           ' ,,###''''                  '''############,,,                           
         ,,##''                                '''############,,,,        ,,,,,,###''
      ,#''                                            '''#######################'''  
     '                                                          ''''####''''         
             ,#######,   #######,   ,#######,      ##                                
            ,#'     '#,  ##    ##  ,#'     '#,    #''#        ,####,    ,#,          
            ##       ##  ##   ,#'  ##            #'  '#       #'       ,# #          
            ##       ##  #######   ##           ,######,      #####,      #          
            '#,     ,#'  ##    ##  '#,     ,#' ,#      #,     #,   #      #          
             '#######'   ##     ##  '#######'  #'      '#     '####' #    #          



                #########################################################
                #                        -***-                          #
                #          Department of theory and spectroscopy        #
                #                                                       #
                #                      Frank Neese                      #
                #                                                       #
                #     Directorship, Architecture, Infrastructure        #
                #                    SHARK, DRIVERS                     #
                #        Core code/Algorithms in most modules           #
                #                                                       #
                #        Max Planck Institute fuer Kohlenforschung      #
                #                Kaiser Wilhelm Platz 1                 #
                #                 D-45470 Muelheim/Ruhr                 #
                #                      Germany                          #
                #                                                       #
                #                  All rights reserved                  #
                #                        -***-                          #
                #########################################################


                         Program Version 6.1.1  -  RELEASE   -


 With contributions from (in alphabetic order):
[Max-Planck-Institut fuer Kohlenforschung]                               
  Daniel Aravena         : Magnetic Suceptibility                        
  Michael Atanasov       : Ab Initio Ligand Field Theory (pilot matlab implementation)
  Alexander A. Auer      : GIAO ZORA, VPT2 properties, NMR spectrum      
  Ute Becker             : All parallelization in ORCA, NUMFREQ, NUMCALC 
  Giovanni Bistoni       : ED, misc. LED, open-shell LED, HFLD           
  Dmytro Bykov           : pre 5.0 version of the SCF Hessian            
  Marcos Casanova-Páez   : Triplet and SCS-CIS(D). UHF-(DLPNO)-IP/EA/STEOM-CCSD. UHF-CVS-IP/STEOM-CCSD   
  Vijay G. Chilkuri      : MRCI spin determinant printing, contributions to CSF-ICE 
  Pauline Colinet        : FMM embedding                                 
  Dipayan Datta          : RHF DLPNO-CCSD density                        
  Achintya Kumar Dutta   : EOM-CC, STEOM-CC                              
  Nicolas Foglia         : Exact transition moments, OPA infrastructure, MCD improvements    
  Dmitry Ganyushin       : Spin-Orbit,Spin-Spin,Magnetic field MRCI      
  Miquel Garcia-Rates    : C-PCM and meta-GGA Hessian, CCSD/C-PCM, Gaussian charge scheme 
  Tiago L. C. Gouveia    : GS-ROHF, GS-ROCIS                             
  Yang Guo               : DLPNO-NEVPT2, F12-NEVPT2, CIM, IAO-localization        
  Andreas Hansen         : Spin unrestricted coupled pair/coupled cluster methods 
  Ingolf Harden          : AUTO-CI MPn and infrastructure                
  Benjamin Helmich-Paris : MC-RPA, TRAH-(SCF,CASSCF), AVAS, COSX integrals, SCF dyn. polar., MC-PDFT, srDFT 
  Lee Huntington         : MR-EOM, pCC                                   
  Robert Izsak           : Overlap fitted RIJCOSX, COSX-SCS-MP3, EOM     
  Riya Kayal             : Wick's Theorem for AUTO-CI, AUTO-CI UHF-CCSDT 
  Emily Kempfer          : AUTO-CI RHF CISDT and CCSDT, approximate NEVPT4
  Christian Kollmar      : KDIIS, OOCD, Brueckner-CCSD(T), CCSD density, CASPT2, CASPT2-K, improved NEVPT2 
  Axel Koslowski         : Symmetry handling                             
  Simone Kossmann        : meta-GGA functionals, TD-DFT gradient, OOMP2, (MP2 Hessian; deprecated post 5.0) 
  Lucas Lang             : DCDCAS, Hyperfine gauge corrections, ICE-SOC+SSC
  Marvin Lechner         : AUTO-CI (C++ implementation), FIC-MRCC        
  Spencer Leger          : CASSCF response                               
  Dagmar Lenk            : GEPOL surface, SMD, ORCA-2-JSON               
  Dimitrios Liakos       : Extrapolation schemes; Compound Job, Property file
  Dimitrios Manganas     : Further ROCIS development; embedding schemes. LFT, Crystal Embedding 
  Dimitrios Pantazis     : SARC Basis sets                               
  Anastasios Papadopoulos: AUTO-CI, single reference methods and gradients 
  Taras Petrenko         : pre 6.0 DFT Hessian and TD-DFT gradient,  ECA, NRVS 
  Petra Pikulova         : Analytic Raman intensities                    
  Peter Pinski           : DLPNO-MP2, DLPNO-MP2 Gradient                 
  Shashank Vittal Rao    : ES-AILFT, MagRelax                            
  Christoph Reimann      : Effective Core Potentials                     
  Marius Retegan         : Local ZFS, SOC                                
  Christoph Riplinger    : Optimizer, TS searches, QM/MM, DLPNO-CCSD(T), (RO)-DLPNO pert. Triples 
  Michael Roemelt        : Original ROCIS implementation, recursive CI coupling coefficients
  Masaaki Saitow         : Open-shell DLPNO-CCSD energy and density      
  Barbara Sandhoefer     : DKH picture change effects                    
  Yorick L. A. Schmerwitz: GMF and freeze-and-release deltaSCF, NEB S-IDPP initial path                    
  Kantharuban Sivalingam : CASSCF convergence/infrastructure, NEVPT2, NEVPT3, NEVPT4(SD), FIC-MRCI and CEPA variants
  Bernardo de Souza      : ESD, SOC TD-DFT                               
  Georgi L. Stoychev     : AutoAux, RI-MP2 NMR, DLPNO-MP2 response, X2C  
  Van Anh Tran           : RI-MP2 g-tensors                              
  Willem Van den Heuvel  : Paramagnetic NMR                              
  Zikuan Wang            : NOTCH, Electric field optimization            
  Frank Wennmohs         : Technical directorship and infrastructure     
  Hang Xu                : AUTO-CI-Response properties                   
                                                                         
[FACCTs GmbH]                                                            
  Markus Bursch, Nicolas Foglia, Miquel Garcia-Rates, Ingolf Harden, Hagen Neugebauer, Anastasios Papadopoulos, 
  Christoph Riplinger, Bernardo de Souza, Georgi L. Stoychev                                                    
                                                                 
  APM, various basis sets, CI-OPT, improved COSX, DLPNO-Multilevel,           
  DOCKER, DRACO, updates on ESD, Fragmentator, GOAT, IRC, LR-CPCM, L-BFGS, MBIS, meta-GGA TD-DFT gradient, ML-optimized integration grids, 
  MM, NACMEs, nearIR, NEB, NEB-TS, NL-DFT gradient (VV10), 2- and 3-layer-ONIOM, interface openCOSMO-RS, QMMM,   
  Crystal-QMMM, RESP, rigid body optimization, SF, symmetry and pop. for TD-DFT, various functionals, SOLVATOR                                   
                                                                         
[Other institutions]                                                     
  V. Asgeirsson          : NEB                                           
  Christoph Bannwarth    : sTDA-DFT, sTD-DFT, PBEh-3c, B97-3c, D3        
  Giovanni Bistoni       : ETS/NOCV, ADLD/ADEX, COVALED                  
  Martin Brehm           : Molecular dynamics                            
  Ronald Cardenas        : ETS/NOCV                                      
  Martina Colucci        : COVALED                                       
  Sebastian Ehlert       : rSCAN, r2SCAN, r2SCAN-3c, D4, dhf basis sets  
  Marvin Friede          : D4 for Fr, Ra, Ac-Lr                          
  Lars Goerigk           : TD-DFT with DH, B97 family of functionals     
  Stefan Grimme          : VdW corrections, initial TS optimization, DFT functionals, gCP, sTDA/sTD-DF 
  Waldemar Hujo          : DFT-NL                                        
  H. Jonsson             : NEB                                           
  Holger Kruse           : gCP                                           
  Marcel Mueller         : wB97X-3c, vDZP basis set                      
  Hagen Neugebauer       : wr2SCAN, Native XTB                           
  Gianluca Regni         : ADLD/ADEX                                     
  Tobias Risthaus        : pre 6.0 range-separated hybrid DFT and stability analysis
  Lukas Wittmann         : regularized MP2, r2SCAN double-hybrids, wr2SCAN        
                                                                         
We gratefully acknowledge several colleagues who have allowed us to      
interface, adapt or use parts of their codes:                            
  Ed Valeev, F. Pavosevic, A. Kumar             : LibInt (2-el integral package), F12 methods 
  Garnet Chan, S. Sharma, J. Yang, R. Olivares  : DMRG                   
  Ulf Ekstrom                                   : XCFun DFT Library      
  Mihaly Kallay                                 : mrcc  (arbitrary order and MRCC methods)
  Frank Weinhold                                : gennbo (NPA and NBO analysis)           
  Simon Mueller                                 : openCOSMO-RS                            
  Christopher J. Cramer and Donald G. Truhlar   : smd solvation model                     
  S Lehtola, MJT Oliveira, MAL Marques          : LibXC Library                           
  Liviu Ungur et al                             : ANISO software                          


 Your calculation uses the libint2 library for the computation of 2-el integrals
 For citations please refer to: http://libint.valeyev.net

 Your ORCA version has been built with support for libXC version: 7.0.0
 For citations please refer to: https://libxc.gitlab.io

 This ORCA versions uses:
   CBLAS   interface :  Fast vector & matrix operations
   LAPACKE interface :  Fast linear algebra routines
   Shared memory     :  Shared parallel matrices


  ***********************************
  * Starting time: Thu Aug 27 14:14:12 2026
  * Host name:     MNH688
  * Process ID:    4904
  * Working dir.:  C:\Users\jabreumiranda\Radioprotection_Pipeline_Project\06_Quantum_DFT_ORCA
  ***********************************

NOTE: MaxCore=2000 MB was set to SCF,MP2,MDCI,CIPSI,MRCI,RASCI and CIS
      => If you want to overwrite this, your respective input block should be placed after the MaxCore statement
Your calculation utilizes the atom-pairwise dispersion correction
with the Becke-Johnson damping scheme (D3BJ)


================================================================================

----- Orbital basis set information -----
Your calculation utilizes the basis: def2-SVP
   F. Weigend and R. Ahlrichs, Phys. Chem. Chem. Phys. 7, 3297 (2005).

----- AuxJ basis set information -----
Your calculation utilizes the auxiliary basis: def2/J
   H-Rn: F. Weigend, Phys. Chem. Chem. Phys. 8, 1057 (2006).
   Fr-Lr: K. Eichkorn, F. Weigend, O. Treutler, R. Ahlrichs; Theor. Chem. Acc. 97, 119 (1997).

================================================================================
                                        WARNINGS
                       Please study these warnings very carefully!
================================================================================


WARNING: Geometry Optimization
  ===> : Switching off AutoStart
         For restart on a previous wavefunction, please use MOREAD

================================================================================
                                       INPUT FILE
================================================================================
NAME = C:\Users\jabreumiranda\Radioprotection_Pipeline_Project\06_Quantum_DFT_ORCA\CHEMBL1683055_neutral_opt.inp
|  1> ! B3LYP def2-SVP def2/J D3BJ Opt Freq CPCM(Water)
|  2> %maxcore 2000
|  3> 
|  4> * xyz 0 1
|  5> N       7.1112     -1.6682     -1.0129
|  6> C       6.0167     -0.9321     -0.7751
|  7> N       5.9233      0.3722     -0.7769
|  8> C       4.6092      0.6416     -0.4808
|  9> C       3.9510      1.8705     -0.3524
| 10> C       2.5832      1.8715     -0.0359
| 11> C       1.8615      0.6773      0.1544
| 12> C       0.4274      0.7153      0.4893
| 13> C      -0.0438      1.4578      1.5770
| 14> C      -1.4070      1.4810      1.8843
| 15> C      -2.3291      0.7741      1.1267
| 16> N      -3.6328      0.8199      1.4540
| 17> C      -4.4878      0.1183      0.6881
| 18> C      -5.8461      0.1334      0.9829
| 19> C      -6.7653     -0.5808      0.2130
| 20> C      -6.3183     -1.3237     -0.8715
| 21> C      -4.9563     -1.3455     -1.1755
| 22> C      -4.0330     -0.6377     -0.4149
| 23> N      -2.7280     -0.6841     -0.7398
| 24> C      -1.8735      0.0193      0.0254
| 25> C      -0.5147      0.0040     -0.2716
| 26> C       2.5280     -0.5585      0.0222
| 27> C       3.8899     -0.5324     -0.2941
| 28> N       4.8184     -1.5234     -0.4846
| 29> H       7.8911     -1.1349     -1.3909
| 30> H       7.0226     -2.5729     -1.4608
| 31> H       4.4947      2.7973     -0.4977
| 32> H       2.0781      2.8324      0.0508
| 33> H       0.6476      2.0173      2.2048
| 34> H      -1.7564      2.0609      2.7351
| 35> H      -6.1936      0.7163      1.8325
| 36> H      -7.8230     -0.5534      0.4626
| 37> H      -7.0219     -1.8849     -1.4812
| 38> H      -4.6039     -1.9261     -2.0246
| 39> H      -0.1888     -0.5750     -1.1339
| 40> H       2.0074     -1.4993      0.1727
| 41> H       4.6620     -2.5146     -0.4006
| 42> *
| 43> 
| 44>                          ****END OF INPUT****
================================================================================

                       *****************************
                       * Geometry Optimization Run *
                       *****************************

Geometry optimization settings:
Update method            Update   .... BFGS
Choice of coordinates    CoordSys .... (2022) Redundant Internals
Initial Hessian          InHess   .... Almloef's Model
Max. no of cycles        MaxIter  .... 111

Convergence Tolerances:
Energy Change            TolE     ....  5.0000e-06 Eh
Max. Gradient            TolMAXG  ....  3.0000e-04 Eh/bohr
RMS Gradient             TolRMSG  ....  1.0000e-04 Eh/bohr
Max. Displacement        TolMAXD  ....  4.0000e-03 bohr
RMS Displacement         TolRMSD  ....  2.0000e-03 bohr
Strict Convergence                .... False

------------------------------------------------------------------------------
                        ORCA OPTIMIZATION COORDINATE SETUP
------------------------------------------------------------------------------

The optimization will be done in redundant internal coordinates (2022)
Making redundant internal coordinates   ...  (2022 redundants) done
Evaluating the initial hessian          ...  (Almloef) done
Evaluating the coordinates              ...  done
Calculating the B-matrix                .... done
Calculating the G-matrix                .... done
The number of degrees of freedom        ....  207

    -----------------------------------------------------------------
                    Redundant Internal Coordinates


    -----------------------------------------------------------------
         Definition                    Initial Value    Approx d2E/dq
    -----------------------------------------------------------------
      1. B(C   1,N   0)                  1.3403         0.671765   
      2. B(N   2,C   1)                  1.3076         0.757310   
      3. B(C   3,N   2)                  1.3737         0.594083   
      4. B(C   4,C   3)                  1.4000         0.602332   
      5. B(C   5,C   4)                  1.4039         0.593604   
      6. B(C   6,C   5)                  1.4083         0.584273   
      7. B(C   7,C   6)                  1.4732         0.460297   
      8. B(C   8,C   7)                  1.3987         0.605091   
      9. B(C   9,C   8)                  1.3976         0.607594   
     10. B(C  10,C   9)                  1.3871         0.631583   
     11. B(N  11,C  10)                  1.3449         0.660344   
     12. B(C  12,N  11)                  1.3453         0.659430   
     13. B(C  13,C  12)                  1.3900         0.624785   
     14. B(C  14,C  13)                  1.3956         0.612028   
     15. B(C  15,C  14)                  1.3885         0.628317   
     16. B(C  16,C  15)                  1.3957         0.611884   
     17. B(C  17,C  16)                  1.3900         0.624899   
     18. B(C  17,C  12)                  1.4124         0.575355   
     19. B(N  18,C  17)                  1.3456         0.658650   
     20. B(C  19,N  18)                  1.3455         0.658888   
     21. B(C  19,C  10)                  1.4107         0.578984   
     22. B(C  20,C  19)                  1.3910         0.622588   
     23. B(C  20,C   7)                  1.4044         0.592503   
     24. B(C  21,C   6)                  1.4103         0.579932   
     25. B(C  22,C  21)                  1.3984         0.605830   
     26. B(C  22,C   3)                  1.3894         0.626098   
     27. B(N  23,C  22)                  1.3713         0.599375   
     28. B(N  23,C   1)                  1.3675         0.607905   
     29. B(H  24,N   0)                  1.0176         0.420773   
     30. B(H  25,N   0)                  1.0134         0.427363   
     31. B(H  26,C   4)                  1.0843         0.367736   
     32. B(H  27,C   5)                  1.0890         0.361394   
     33. B(H  28,C   8)                  1.0887         0.361861   
     34. B(H  29,C   9)                  1.0873         0.363687   
     35. B(H  30,C  13)                  1.0874         0.363611   
     36. B(H  31,C  14)                  1.0871         0.363961   
     37. B(H  32,C  15)                  1.0871         0.363990   
     38. B(H  33,C  16)                  1.0873         0.363670   
     39. B(H  34,C  20)                  1.0886         0.361979   
     40. B(H  35,C  21)                  1.0857         0.365812   
     41. B(H  36,N  23)                  1.0070         0.437547   
     42. A(C   1,N   0,H  24)          113.8248         0.361875   
     43. A(H  24,N   0,H  25)          111.7583         0.301307   
     44. A(C   1,N   0,H  25)          119.8240         0.362836   
     45. A(N   2,C   1,N  23)          111.6542         0.442552   
     46. A(N   0,C   1,N  23)          121.0518         0.433089   
     47. A(N   0,C   1,N   2)          127.2936         0.450637   
     48. A(C   1,N   2,C   3)          105.2860         0.440716   
     49. A(N   2,C   3,C  22)          111.0072         0.428687   
     50. A(C   4,C   3,C  22)          119.0768         0.432576   
     51. A(N   2,C   3,C   4)          129.9160         0.425724   
     52. A(C   3,C   4,C   5)          118.6431         0.428456   
     53. A(C   5,C   4,H  26)          121.2068         0.351567   
     54. A(C   3,C   4,H  26)          120.1501         0.352436   
     55. A(C   4,C   5,C   6)          121.9478         0.426125   
     56. A(C   4,C   5,H  27)          118.0633         0.350535   
     57. A(C   6,C   5,H  27)          119.9856         0.349599   
     58. A(C   5,C   6,C   7)          120.5128         0.407266   
     59. A(C   5,C   6,C  21)          119.2236         0.424352   
     60. A(C   7,C   6,C  21)          120.2635         0.406729   
     61. A(C   8,C   7,C  20)          117.6573         0.428665   
     62. A(C   6,C   7,C  20)          121.1164         0.408275   
     63. A(C   6,C   7,C   8)          121.2262         0.409798   
     64. A(C   7,C   8,H  28)          120.4845         0.351749   
     65. A(C   9,C   8,H  28)          118.9553         0.351995   
     66. A(C   7,C   8,C   9)          120.5562         0.430604   
     67. A(C  10,C   9,H  29)          119.0499         0.354612   
     68. A(C   8,C   9,H  29)          119.6263         0.352294   
     69. A(C   8,C   9,C  10)          121.3235         0.433933   
     70. A(N  11,C  10,C  19)          121.4162         0.430808   
     71. A(C   9,C  10,C  19)          118.9714         0.430188   
     72. A(C   9,C  10,N  11)          119.6124         0.437602   
     73. A(C  10,N  11,C  12)          117.3708         0.438126   
     74. A(N  11,C  12,C  13)          119.6457         0.436640   
     75. A(C  13,C  12,C  17)          119.0837         0.428869   
     76. A(N  11,C  12,C  17)          121.2706         0.430215   
     77. A(C  14,C  13,H  30)          119.6615         0.352716   
     78. A(C  12,C  13,C  14)          121.4028         0.433656   
     79. A(C  12,C  13,H  30)          118.9357         0.353950   
     80. A(C  13,C  14,C  15)          119.5152         0.434096   
     81. A(C  13,C  14,H  31)          120.0835         0.352773   
     82. A(C  15,C  14,H  31)          120.4013         0.354346   
     83. A(C  16,C  15,H  32)          120.0922         0.352764   
     84. A(C  14,C  15,H  32)          120.3926         0.354351   
     85. A(C  14,C  15,C  16)          119.5152         0.434078   
     86. A(C  15,C  16,H  33)          119.6509         0.352711   
     87. A(C  17,C  16,H  33)          118.9437         0.353970   
     88. A(C  15,C  16,C  17)          121.4054         0.433652   
     89. A(C  16,C  17,N  18)          119.6384         0.436561   
     90. A(C  12,C  17,N  18)          121.2839         0.430124   
     91. A(C  12,C  17,C  16)          119.0778         0.428883   
     92. A(C  17,N  18,C  19)          117.4225         0.437859   
     93. A(N  18,C  19,C  20)          119.5510         0.436299   
     94. A(C  10,C  19,C  20)          119.2130         0.429082   
     95. A(C  10,C  19,N  18)          121.2359         0.430638   
     96. A(C  19,C  20,H  34)          117.8685         0.353469   
     97. A(C   7,C  20,H  34)          119.8490         0.350521   
     98. A(C   7,C  20,C  19)          122.2785         0.430863   
     99. A(C   6,C  21,H  35)          121.3129         0.349876   
    100. A(C   6,C  21,C  22)          117.7177         0.427113   
    101. A(C  22,C  21,H  35)          120.9649         0.352468   
    102. A(C  21,C  22,N  23)          132.6374         0.426843   
    103. A(C   3,C  22,N  23)          103.9707         0.429369   
    104. A(C   3,C  22,C  21)          123.3908         0.433026   
    105. A(C   1,N  23,C  22)          108.0807         0.424323   
    106. A(C  22,N  23,H  36)          126.4839         0.357286   
    107. A(C   1,N  23,H  36)          125.4125         0.358145   
    108. D(N   2,C   1,N   0,H  24)    -11.4568         0.037047   
    109. D(N  23,C   1,N   0,H  25)     32.7223         0.037047   
    110. D(N  23,C   1,N   0,H  24)    168.7950         0.037047   
    111. D(N   2,C   1,N   0,H  25)   -147.5295         0.037047   
    112. D(C   3,N   2,C   1,N   0)    179.9854         0.043651   
    113. D(C   3,N   2,C   1,N  23)     -0.2467         0.043651   
    114. D(C   4,C   3,N   2,C   1)   -179.9760         0.025744   
    115. D(C  22,C   3,N   2,C   1)      0.0488         0.025744   
    116. D(H  26,C   4,C   3,N   2)      0.2320         0.025021   
    117. D(H  26,C   4,C   3,C  22)   -179.7944         0.025021   
    118. D(C   5,C   4,C   3,C  22)      0.1193         0.025021   
    119. D(C   5,C   4,C   3,N   2)   -179.8543         0.025021   
    120. D(H  27,C   5,C   4,C   3)   -179.3329         0.024264   
    121. D(C   6,C   5,C   4,C   3)      0.0026         0.024264   
    122. D(C   6,C   5,C   4,H  26)    179.9154         0.024264   
    123. D(H  27,C   5,C   4,H  26)      0.5799         0.024264   
    124. D(C  21,C   6,C   5,H  27)    179.2291         0.023470   
    125. D(C  21,C   6,C   5,C   4)     -0.0939         0.023470   
    126. D(C   7,C   6,C   5,H  27)     -0.8432         0.023470   
    127. D(C   7,C   6,C   5,C   4)    179.8338         0.023470   
    128. D(C  20,C   7,C   6,C  21)    -53.6757         0.014433   
    129. D(C   8,C   7,C   6,C  21)    126.1792         0.014433   
    130. D(C  20,C   7,C   6,C   5)    126.3973         0.014433   
    131. D(C   8,C   7,C   6,C   5)    -53.7478         0.014433   
    132. D(H  28,C   8,C   7,C  20)    179.3001         0.025264   
    133. D(H  28,C   8,C   7,C   6)     -0.5596         0.025264   
    134. D(C   9,C   8,C   7,C  20)      0.0368         0.025264   
    135. D(C   9,C   8,C   7,C   6)   -179.8229         0.025264   
    136. D(H  29,C   9,C   8,C   7)    179.8173         0.025485   
    137. D(C  10,C   9,C   8,H  28)   -179.2707         0.025485   
    138. D(C  10,C   9,C   8,C   7)      0.0037         0.025485   
    139. D(H  29,C   9,C   8,H  28)      0.5428         0.025485   
    140. D(C  19,C  10,C   9,H  29)   -179.8273         0.027667   
    141. D(C  19,C  10,C   9,C   8)     -0.0127         0.027667   
    142. D(N  11,C  10,C   9,H  29)      0.1311         0.027667   
    143. D(N  11,C  10,C   9,C   8)    179.9457         0.027667   
    144. D(C  12,N  11,C  10,C  19)     -0.0911         0.032312   
    145. D(C  12,N  11,C  10,C   9)    179.9516         0.032312   
    146. D(C  17,C  12,N  11,C  10)      0.0837         0.032215   
    147. D(C  13,C  12,N  11,C  10)   -179.9298         0.032215   
    148. D(H  30,C  13,C  12,C  17)   -179.9926         0.027037   
    149. D(H  30,C  13,C  12,N  11)      0.0207         0.027037   
    150. D(C  14,C  13,C  12,C  17)     -0.0166         0.027037   
    151. D(C  14,C  13,C  12,N  11)    179.9966         0.027037   
    152. D(H  31,C  14,C  13,H  30)      0.0080         0.025880   
    153. D(H  31,C  14,C  13,C  12)   -179.9678         0.025880   
    154. D(C  15,C  14,C  13,H  30)    179.9756         0.025880   
    155. D(C  15,C  14,C  13,C  12)     -0.0001         0.025880   
    156. D(H  32,C  15,C  14,H  31)      0.0022         0.027363   
    157. D(H  32,C  15,C  14,C  13)   -179.9653         0.027363   
    158. D(C  16,C  15,C  14,H  31)    179.9821         0.027363   
    159. D(C  16,C  15,C  14,C  13)      0.0145         0.027363   
    160. D(H  33,C  16,C  15,H  32)      0.0128         0.025867   
    161. D(H  33,C  16,C  15,C  14)   -179.9671         0.025867   
    162. D(C  17,C  16,C  15,H  32)    179.9677         0.025867   
    163. D(C  17,C  16,C  15,C  14)     -0.0122         0.025867   
    164. D(C  12,C  17,C  16,H  33)    179.9506         0.027048   
    165. D(C  12,C  17,C  16,C  15)     -0.0046         0.027048   
    166. D(N  18,C  17,C  12,C  13)   -179.9708         0.022727   
    167. D(N  18,C  17,C  12,N  11)      0.0157         0.022727   
    168. D(C  16,C  17,C  12,C  13)      0.0188         0.022727   
    169. D(N  18,C  17,C  16,C  15)    179.9852         0.027048   
    170. D(C  16,C  17,C  12,N  11)   -179.9946         0.022727   
    171. D(N  18,C  17,C  16,H  33)     -0.0595         0.027048   
    172. D(C  19,N  18,C  17,C  16)    179.9038         0.032132   
    173. D(C  19,N  18,C  17,C  12)     -0.1066         0.032132   
    174. D(C  20,C  19,N  18,C  17)   -179.9237         0.032157   
    175. D(C  10,C  19,N  18,C  17)      0.0993         0.032157   
    176. D(C  20,C  19,C  10,N  11)   -179.9774         0.023027   
    177. D(C  20,C  19,C  10,C   9)     -0.0199         0.023027   
    178. D(N  18,C  19,C  10,N  11)     -0.0004         0.023027   
    179. D(N  18,C  19,C  10,C   9)    179.9572         0.023027   
    180. D(H  34,C  20,C  19,N  18)      0.8124         0.026836   
    181. D(H  34,C  20,C  19,C  10)   -179.2102         0.026836   
    182. D(C   7,C  20,C  19,N  18)   -179.9144         0.026836   
    183. D(C   7,C  20,C  19,C  10)      0.0631         0.026836   
    184. D(H  34,C  20,C   7,C   8)    179.1883         0.024169   
    185. D(H  34,C  20,C   7,C   6)     -0.9518         0.024169   
    186. D(C  19,C  20,C   7,C   8)     -0.0710         0.024169   
    187. D(C  19,C  20,C   7,C   6)    179.7889         0.024169   
    188. D(H  35,C  21,C   6,C   7)     -0.6346         0.023106   
    189. D(H  35,C  21,C   6,C   5)    179.2933         0.023106   
    190. D(C  22,C  21,C   6,C   7)   -179.8677         0.023106   
    191. D(C  22,C  21,C   6,C   5)      0.0602         0.023106   
    192. D(N  23,C  22,C  21,H  35)      0.3831         0.025329   
    193. D(N  23,C  22,C  21,C   6)    179.6189         0.025329   
    194. D(C   3,C  22,C  21,H  35)   -179.1708         0.025329   
    195. D(C   3,C  22,C  21,C   6)      0.0650         0.025329   
    196. D(N  23,C  22,C   3,C   4)   -179.8190         0.027158   
    197. D(N  23,C  22,C   3,N   2)      0.1593         0.027158   
    198. D(C  21,C  22,C   3,C   4)     -0.1572         0.027158   
    199. D(C  21,C  22,C   3,N   2)    179.8211         0.027158   
    200. D(H  36,N  23,C  22,C  21)     -1.5885         0.028943   
    201. D(H  36,N  23,C  22,C   3)    178.0276         0.028943   
    202. D(C   1,N  23,C  22,C  21)   -179.9155         0.028943   
    203. D(C   1,N  23,C  22,C   3)     -0.2993         0.028943   
    204. D(H  36,N  23,C   1,N   2)   -177.9916         0.029834   
    205. D(H  36,N  23,C   1,N   0)      1.7929         0.029834   
    206. D(C  22,N  23,C   1,N   2)      0.3579         0.029834   
    207. D(C  22,N  23,C   1,N   0)   -179.8577         0.029834   
    -----------------------------------------------------------------

Number of atoms                         .... 37
Number of degrees of freedom            .... 207


         *************************************************************
         *                GEOMETRY OPTIMIZATION CYCLE   1            *
         *************************************************************
---------------------------------
CARTESIAN COORDINATES (ANGSTROEM)
---------------------------------
  N      7.111200   -1.668200   -1.012900
  C      6.016700   -0.932100   -0.775100
  N      5.923300    0.372200   -0.776900
  C      4.609200    0.641600   -0.480800
  C      3.951000    1.870500   -0.352400
  C      2.583200    1.871500   -0.035900
  C      1.861500    0.677300    0.154400
  C      0.427400    0.715300    0.489300
  C     -0.043800    1.457800    1.577000
  C     -1.407000    1.481000    1.884300
  C     -2.329100    0.774100    1.126700
  N     -3.632800    0.819900    1.454000
  C     -4.487800    0.118300    0.688100
  C     -5.846100    0.133400    0.982900
  C     -6.765300   -0.580800    0.213000
  C     -6.318300   -1.323700   -0.871500
  C     -4.956300   -1.345500   -1.175500
  C     -4.033000   -0.637700   -0.414900
  N     -2.728000   -0.684100   -0.739800
  C     -1.873500    0.019300    0.025400
  C     -0.514700    0.004000   -0.271600
  C      2.528000   -0.558500    0.022200
  C      3.889900   -0.532400   -0.294100
  N      4.818400   -1.523400   -0.484600
  H      7.891100   -1.134900   -1.390900
  H      7.022600   -2.572900   -1.460800
  H      4.494700    2.797300   -0.497700
  H      2.078100    2.832400    0.050800
  H      0.647600    2.017300    2.204800
  H     -1.756400    2.060900    2.735100
  H     -6.193600    0.716300    1.832500
  H     -7.823000   -0.553400    0.462600
  H     -7.021900   -1.884900   -1.481200
  H     -4.603900   -1.926100   -2.024600
  H     -0.188800   -0.575000   -1.133900
  H      2.007400   -1.499300    0.172700
  H      4.662000   -2.514600   -0.400600

----------------------------
CARTESIAN COORDINATES (A.U.)
----------------------------
  NO LB      ZA    FRAG     MASS         X           Y           Z
   0 N     7.0000    0    14.007   13.438220   -3.152441   -1.914104
   1 C     6.0000    0    12.011   11.369915   -1.761414   -1.464727
   2 N     7.0000    0    14.007   11.193415    0.703356   -1.468128
   3 C     6.0000    0    12.011    8.710126    1.212448   -0.908580
   4 C     6.0000    0    12.011    7.466308    3.534733   -0.665939
   5 C     6.0000    0    12.011    4.881541    3.536622   -0.067841
   6 C     6.0000    0    12.011    3.517725    1.279912    0.291774
   7 C     6.0000    0    12.011    0.807669    1.351721    0.924643
   8 C     6.0000    0    12.011   -0.082770    2.754843    2.980098
   9 C     6.0000    0    12.011   -2.658845    2.798684    3.560811
  10 C     6.0000    0    12.011   -4.401361    1.462837    2.129154
  11 N     7.0000    0    14.007   -6.864997    1.549386    2.747662
  12 C     6.0000    0    12.011   -8.480713    0.223555    1.300321
  13 C     6.0000    0    12.011  -11.047528    0.252089    1.857412
  14 C     6.0000    0    12.011  -12.784564   -1.097553    0.402512
  15 C     6.0000    0    12.011  -11.939857   -2.501430   -1.646896
  16 C     6.0000    0    12.011   -9.366050   -2.542627   -2.221373
  17 C     6.0000    0    12.011   -7.621265   -1.205078   -0.784047
  18 N     7.0000    0    14.007   -5.155173   -1.292762   -1.398019
  19 C     6.0000    0    12.011   -3.540402    0.036472    0.047999
  20 C     6.0000    0    12.011   -0.972642    0.007559   -0.513250
  21 C     6.0000    0    12.011    4.777228   -1.055412    0.041952
  22 C     6.0000    0    12.011    7.350846   -1.006090   -0.555768
  23 N     7.0000    0    14.007    9.105456   -2.878809   -0.915761
  24 H     1.0000    0     1.008   14.912018   -2.144650   -2.628420
  25 H     1.0000    0     1.008   13.270791   -4.862076   -2.760512
  26 H     1.0000    0     1.008    8.493752    5.286131   -0.940517
  27 H     1.0000    0     1.008    3.927040    5.352460    0.095998
  28 H     1.0000    0     1.008    1.223787    3.812145    4.166468
  29 H     1.0000    0     1.008   -3.319115    3.894537    5.168590
  30 H     1.0000    0     1.008  -11.704208    1.353611    3.462923
  31 H     1.0000    0     1.008  -14.783328   -1.045774    0.874187
  32 H     1.0000    0     1.008  -13.269468   -3.561945   -2.799062
  33 H     1.0000    0     1.008   -8.700110   -3.639802   -3.825940
  34 H     1.0000    0     1.008   -0.356780   -1.086593   -2.142760
  35 H     1.0000    0     1.008    3.793436   -2.833266    0.326356
  36 H     1.0000    0     1.008    8.809903   -4.751905   -0.757024

--------------------------------
INTERNAL COORDINATES (ANGSTROEM)
--------------------------------
 N      0   0   0     0.000000000000     0.00000000     0.00000000
 C      1   0   0     1.340269487827     0.00000000     0.00000000
 N      2   1   0     1.307641116668   127.29356344     0.00000000
 C      3   2   1     1.373721361849   105.28604934   179.98544175
 C      4   3   2     1.399967503194   129.91599659   180.02404645
 C      5   4   3     1.403940913999   118.64311161   180.14570746
 C      6   5   4     1.408253748442   121.94776407     0.00000000
 C      7   6   5     1.473175081245   120.51283977   179.83380503
 C      8   7   6     1.398723339335   121.22619348   306.25221909
 C      9   8   7     1.397600003578   120.55620327   180.17711690
 C     10   9   8     1.387059400314   121.32353093     0.00000000
 N     11  10   9     1.344937403748   119.61238971   179.94567724
 C     12  11  10     1.345314227235   117.37084527   179.95158245
 C     13  12  11     1.390005014379   119.64571201   180.07016686
 C     14  13  12     1.395620396096   121.40282896   179.99657421
 C     15  14  13     1.388470258954   119.51515532     0.00000000
 C     16  15  14     1.395684505897   119.51515656     0.00000000
 C     17  16  15     1.389955427343   121.40536779     0.00000000
 N     18  17  16     1.345636641148   119.63837913   179.98519297
 C     19  18  17     1.345538126550   117.42249463   179.90379336
 C     20  19  18     1.390963885225   119.55104016   180.07626695
 C      7   6   5     1.410283918224   119.22360032   359.90608066
 C      4   3   2     1.389433474478   111.00718612     0.04876341
 N      2   1   3     1.367460723385   121.05180711   180.25183430
 H      1   2   3     1.017613335211   113.82484343   348.54317643
 H      1   2   3     1.013383668706   119.82401648   212.47046208
 H      5   4   3     1.084287793900   120.15007928     0.23198880
 H      6   5   4     1.089023282579   118.06328899   180.66710260
 H      9   8   7     1.088672149915   120.48447720   359.44041626
 H     10   9   8     1.087301710658   119.62628942   179.81728165
 H     14  13  12     1.087358643687   118.93567336     0.00000000
 H     15  14  13     1.087097148373   120.08350961   180.03222827
 H     16  15  14     1.087075199791   120.39264807   180.03468601
 H     17  16  15     1.087314549705   119.65089312   180.03286823
 H     21  20  19     1.088583069867   117.86852941     0.81238326
 H     22   7   6     1.085716007987   121.31286261   179.29328103
 H     24   2   1     1.006972889407   125.41250194     1.79285936

---------------------------
INTERNAL COORDINATES (A.U.)
---------------------------
 N      0   0   0     0.000000000000     0.00000000     0.00000000
 C      1   0   0     2.532742277644     0.00000000     0.00000000
 N      2   1   0     2.471083591957   127.29356344     0.00000000
 C      3   2   1     2.595957158212   105.28604934   179.98544175
 C      4   3   2     2.645555177427   129.91599659   180.02404645
 C      5   4   3     2.653063835665   118.64311161   180.14570746
 C      6   5   4     2.661213911623   121.94776407     0.00000000
 C      7   6   5     2.783897450869   120.51283977   179.83380503
 C      8   7   6     2.643204048467   121.22619348   306.25221909
 C      9   8   7     2.641081251529   120.55620327   180.17711690
 C     10   9   8     2.621162398075   121.32353093     0.00000000
 N     11  10   9     2.541563360351   119.61238971   179.94567724
 C     12  11  10     2.542275453541   117.37084527   179.95158245
 C     13  12  11     2.626728801954   119.64571201   180.07016686
 C     14  13  12     2.637340335537   121.40282896   179.99657421
 C     15  14  13     2.623828534518   119.51515532     0.00000000
 C     16  15  14     2.637461485502   119.51515656     0.00000000
 C     17  16  15     2.626635096036   121.40536779     0.00000000
 N     18  17  16     2.542884727539   119.63837913   179.98519297
 C     19  18  17     2.542698561929   117.42249463   179.90379336
 C     20  19  18     2.628540805250   119.55104016   180.07626695
 C      7   6   5     2.665050376516   119.22360032   359.90608066
 C      4   3   2     2.625648748066   111.00718612     0.04876341
 N      2   1   3     2.584126266091   121.05180711   180.25183430
 H      1   2   3     1.923010513776   113.82484343   348.54317643
 H      1   2   3     1.915017602443   119.82401648   212.47046208
 H      5   4   3     2.049006980824   120.15007928     0.23198880
 H      6   5   4     2.057955757539   118.06328899   180.66710260
 H      9   8   7     2.057292212966   120.48447720   359.44041626
 H     10   9   8     2.054702458088   119.62628942   179.81728165
 H     14  13  12     2.054810045920   118.93567336     0.00000000
 H     15  14  13     2.054315891391   120.08350961   180.03222827
 H     16  15  14     2.054274414582   120.39264807   180.03468601
 H     17  16  15     2.054726720370   119.65089312   180.03286823
 H     21  20  19     2.057123876071   117.86852941     0.81238326
 H     22   7   6     2.051705914310   121.31286261   179.29328103
 H     24   2   1     1.902902985262   125.41250194     1.79285936

---------------------
BASIS SET INFORMATION
---------------------
There are 3 groups of distinct atoms

 Group   1 Type N   : 7s4p1d contracted to 3s2p1d pattern {511/31/1}
 Group   2 Type C   : 7s4p1d contracted to 3s2p1d pattern {511/31/1}
 Group   3 Type H   : 4s1p contracted to 2s1p pattern {31/1}

Atom   0N    basis set group =>   1
Atom   1C    basis set group =>   2
Atom   2N    basis set group =>   1
Atom   3C    basis set group =>   2
Atom   4C    basis set group =>   2
Atom   5C    basis set group =>   2
Atom   6C    basis set group =>   2
Atom   7C    basis set group =>   2
Atom   8C    basis set group =>   2
Atom   9C    basis set group =>   2
Atom  10C    basis set group =>   2
Atom  11N    basis set group =>   1
Atom  12C    basis set group =>   2
Atom  13C    basis set group =>   2
Atom  14C    basis set group =>   2
Atom  15C    basis set group =>   2
Atom  16C    basis set group =>   2
Atom  17C    basis set group =>   2
Atom  18N    basis set group =>   1
Atom  19C    basis set group =>   2
Atom  20C    basis set group =>   2
Atom  21C    basis set group =>   2
Atom  22C    basis set group =>   2
Atom  23N    basis set group =>   1
Atom  24H    basis set group =>   3
Atom  25H    basis set group =>   3
Atom  26H    basis set group =>   3
Atom  27H    basis set group =>   3
Atom  28H    basis set group =>   3
Atom  29H    basis set group =>   3
Atom  30H    basis set group =>   3
Atom  31H    basis set group =>   3
Atom  32H    basis set group =>   3
Atom  33H    basis set group =>   3
Atom  34H    basis set group =>   3
Atom  35H    basis set group =>   3
Atom  36H    basis set group =>   3
---------------------------------
AUXILIARY/J BASIS SET INFORMATION
---------------------------------
There are 3 groups of distinct atoms

 Group   1 Type N   : 12s5p4d2f1g contracted to 6s4p3d1f1g pattern {711111/2111/211/2/1}
 Group   2 Type C   : 12s5p4d2f1g contracted to 6s4p3d1f1g pattern {711111/2111/211/2/1}
 Group   3 Type H   : 5s2p1d contracted to 3s1p1d pattern {311/2/1}

Atom   0N    basis set group =>   1
Atom   1C    basis set group =>   2
Atom   2N    basis set group =>   1
Atom   3C    basis set group =>   2
Atom   4C    basis set group =>   2
Atom   5C    basis set group =>   2
Atom   6C    basis set group =>   2
Atom   7C    basis set group =>   2
Atom   8C    basis set group =>   2
Atom   9C    basis set group =>   2
Atom  10C    basis set group =>   2
Atom  11N    basis set group =>   1
Atom  12C    basis set group =>   2
Atom  13C    basis set group =>   2
Atom  14C    basis set group =>   2
Atom  15C    basis set group =>   2
Atom  16C    basis set group =>   2
Atom  17C    basis set group =>   2
Atom  18N    basis set group =>   1
Atom  19C    basis set group =>   2
Atom  20C    basis set group =>   2
Atom  21C    basis set group =>   2
Atom  22C    basis set group =>   2
Atom  23N    basis set group =>   1
Atom  24H    basis set group =>   3
Atom  25H    basis set group =>   3
Atom  26H    basis set group =>   3
Atom  27H    basis set group =>   3
Atom  28H    basis set group =>   3
Atom  29H    basis set group =>   3
Atom  30H    basis set group =>   3
Atom  31H    basis set group =>   3
Atom  32H    basis set group =>   3
Atom  33H    basis set group =>   3
Atom  34H    basis set group =>   3
Atom  35H    basis set group =>   3
Atom  36H    basis set group =>   3
------------------------------------------------------------------------------
                             ORCA STARTUP CALCULATIONS
                           -- RI-GTO INTEGRALS CHOSEN --
------------------------------------------------------------------------------
------------------------------------------------------------------------------
                   ___                                                        
                  /   \      - P O W E R E D   B Y -                         
                 /     \                                                     
                 |  |  |   _    _      __       _____    __    __             
                 |  |  |  | |  | |    /  \     |  _  \  |  |  /  |          
                  \  \/   | |  | |   /    \    | | | |  |  | /  /          
                 / \  \   | |__| |  /  /\  \   | |_| |  |  |/  /          
                |  |  |   |  __  | /  /__\  \  |    /   |      \           
                |  |  |   | |  | | |   __   |  |    \   |  |\   \          
                \     /   | |  | | |  |  |  |  | |\  \  |  | \   \       
                 \___/    |_|  |_| |__|  |__|  |_| \__\ |__|  \__/        
                                                                              
                      - O R C A' S   B I G   F R I E N D -                    
                                      &                                       
                       - I N T E G R A L  F E E D E R -                       
                                                                              
 v1 FN, 2020, v2 2021, v3 2022-2024                                           
------------------------------------------------------------------------------


----------------------
SHARK INTEGRAL PACKAGE
----------------------

Number of atoms                             ...     37
Number of basis functions                   ...    401
Number of shells                            ...    183
Maximum angular momentum                    ...      2
Integral batch strategy                     ... SHARK/LIBINT Hybrid
RI-J (if used) integral strategy            ... SPLIT-RIJ (Revised 2003 algorithm where possible)
Printlevel                                  ...      1
Contraction scheme used                     ... SEGMENTED contraction
Prescreening option                         ... SCHWARTZ
   Thresh                                   ... 2.500e-11
   Tcut                                     ... 2.500e-12
   Tpresel                                  ... 2.500e-12 
Coulomb Range Separation                    ... NOT USED
Exchange Range Separation                   ... NOT USED
Multipole approximations                    ... NOT USED
Finite Nucleus Model                        ... NOT USED
CABS basis                                  ... NOT available
Auxiliary Coulomb fitting basis             ... AVAILABLE
   # of basis functions in Aux-J            ...   1319
   # of shells in Aux-J                     ...    425
   Maximum angular momentum in Aux-J        ...      4
Auxiliary J/K fitting basis                 ... NOT available
Auxiliary Correlation fitting basis         ... NOT available
Auxiliary 'external' fitting basis          ... NOT available

Checking pre-screening integrals            ... done (  0.0 sec) Dimension = 183
   => SHARK Basis and OBASIS are compatible. Storing Pre-screening
Shell pair information
Shell pair cut-off parameter TPreSel        ...   2.5e-12
Total number of shell pairs                 ...     16836
Shell pairs after pre-screening             ...     10564
Total number of primitive shell pairs       ...     62832
Primitive shell pairs kept                  ...     25570
          la=0 lb=0:   3081 shell pairs
          la=1 lb=0:   3862 shell pairs
          la=1 lb=1:   1264 shell pairs
          la=2 lb=0:   1334 shell pairs
          la=2 lb=1:    865 shell pairs
          la=2 lb=2:    158 shell pairs

Checking whether 4 symmetric matrices of dimension 401 fit in memory
:Max Core in MB      =   2000.00
 MB in use           =     13.98
 MB left             =   1986.02
 MB needed           =      2.46
 Data fit in memory  = YES
Calculating RI/J V-Matrix + Cholesky decomp.... done (  0.1 sec)
Calculating Nuclear repulsion               ... done (  0.0 sec) ENN=   1750.086293050870 Eh

Diagonalization of the overlap matrix:
Smallest eigenvalue                        ... 1.802e-04
Time for diagonalization                   ...    0.015 sec
Threshold for overlap eigenvalues          ... 1.000e-07
Number of eigenvalues below threshold      ... 0
Time for construction of square roots      ...    0.009 sec
Total time needed                          ...    0.026 sec

-------------------
DFT GRID GENERATION
-------------------

General Integration Accuracy     IntAcc      ... 4.388
Radial Grid Type                 RadialGrid  ... OptM3 with GC (2021)
Angular Grid (max. ang.)         AngularGrid ... 4 (Lebedev-302)
Angular grid pruning method      GridPruning ... 4 (adaptive)
Weight generation scheme         WeightScheme... mBecke (2022)
Basis function cutoff            BFCut       ... 1.0000e-11
Integration weight cutoff        WCut        ... 1.0000e-14
Partially contracted basis set               ... off
Rotationally invariant grid construction     ... off
Angular grids for H and He will be reduced by one unit

Total number of grid points                  ...   185159
Total number of batches                      ...     2908
Average number of points per batch           ...       63
Average number of grid points per atom       ...     5004

--------------------
COSX GRID GENERATION
--------------------

GRIDX 1
-------
General Integration Accuracy     IntAcc      ... 3.816
Radial Grid Type                 RadialGrid  ... OptM3 with GC (2021)
Angular Grid (max. ang.)         AngularGrid ... 1 (Lebedev-50)
Angular grid pruning method      GridPruning ... 4 (adaptive)
Weight generation scheme         WeightScheme... mBecke (2022)
Basis function cutoff            BFCut       ... 1.0000e-11
Integration weight cutoff        WCut        ... 1.0000e-14
Partially contracted basis set               ... on
Rotationally invariant grid construction     ... off
Angular grids for H and He will be reduced by one unit

Total number of grid points                  ...    23519
Total number of batches                      ...      201
Average number of points per batch           ...      117
Average number of grid points per atom       ...      636
UseSFitting                                  ... on

GRIDX 2
-------
General Integration Accuracy     IntAcc      ... 4.020
Radial Grid Type                 RadialGrid  ... OptM3 with GC (2021)
Angular Grid (max. ang.)         AngularGrid ... 2 (Lebedev-110)
Angular grid pruning method      GridPruning ... 4 (adaptive)
Weight generation scheme         WeightScheme... mBecke (2022)
Basis function cutoff            BFCut       ... 1.0000e-11
Integration weight cutoff        WCut        ... 1.0000e-14
Partially contracted basis set               ... on
Rotationally invariant grid construction     ... off
Angular grids for H and He will be reduced by one unit

Total number of grid points                  ...    52153
Total number of batches                      ...      429
Average number of points per batch           ...      121
Average number of grid points per atom       ...     1410
UseSFitting                                  ... on

GRIDX 3
-------
General Integration Accuracy     IntAcc      ... 4.338
Radial Grid Type                 RadialGrid  ... OptM3 with GC (2021)
Angular Grid (max. ang.)         AngularGrid ... 3 (Lebedev-194)
Angular grid pruning method      GridPruning ... 4 (adaptive)
Weight generation scheme         WeightScheme... mBecke (2022)
Basis function cutoff            BFCut       ... 1.0000e-11
Integration weight cutoff        WCut        ... 1.0000e-14
Partially contracted basis set               ... on
Rotationally invariant grid construction     ... off
Angular grids for H and He will be reduced by one unit

Total number of grid points                  ...   114423
Total number of batches                      ...      913
Average number of points per batch           ...      125
Average number of grid points per atom       ...     3093
UseSFitting                                  ... on
Grids setup in   4.9 sec
Initializing property integral containers    ... done (  0.1 sec)

SHARK setup successfully completed in   5.4 seconds

Maximum memory used throughout the entire STARTUP-calculation: 75.9 MB
-------------------------------------------------------------------------------
                                 ORCA GUESS
                   Start orbitals & Density for SCF / CASSCF
-------------------------------------------------------------------------------

------------
SCF SETTINGS
------------
Hamiltonian:
 Density Functional     Method          .... DFT(GTOs)
 Exchange Functional    Exchange        .... B88
   X-Alpha parameter    XAlpha          ....  0.666667
   Becke's b parameter  XBeta           ....  0.004200
 Correlation Functional Correlation     .... LYP
 LDA part of GGA corr.  LDAOpt          .... VWN-5
 Gradients option       PostSCFGGA      .... off
 Hybrid DFT is turned on
   Fraction HF Exchange ScalHFX         ....  0.200000
   Scaling of DF-GGA-X  ScalDFX         ....  0.720000
   Scaling of DF-GGA-C  ScalDFC         ....  0.810000
   Scaling of DF-LDA-C  ScalLDAC        ....  1.000000
   Perturbative correction              ....  0.000000
   NL short-range parameter             ....  4.800000
 RI-approximation to the Coulomb term is turned on
   Number of AuxJ basis functions       .... 1319
   RIJ-COSX (HFX calculated with COS-X)).... on


General Settings:
 Integral files         IntName         .... C:\Users\jabreumiranda\Radioprotection_Pipeline_Project\06_Quantum_DFT_ORCA\CHEMBL1683055_neutral_opt
 Hartree-Fock type      HFTyp           .... RHF
 Total Charge           Charge          ....    0
 Multiplicity           Mult            ....    1
 Number of Electrons    NEL             ....  162
 Basis Dimension        Dim             ....  401
 Nuclear Repulsion      ENuc            ....   1750.0862930509 Eh

Convergence Acceleration:
 AO-DIIS                CNVDIIS         .... on
   Start iteration      DIISMaxIt       ....    12
   Startup error        DIISStart       ....  0.200000
   # of expansion vecs  DIISMaxEq       ....     5
   Bias factor          DIISBfac        ....   1.050
   Max. coefficient     DIISMaxC        ....  10.000
 MO-DIIS                CNVKDIIS        .... off
 Trust-Rad. Augm. Hess. CNVTRAH         .... auto
   Auto Start mean grad. ratio tolernc. ....  1.125000
   Auto Start start iteration           ....    50
   Auto Start num. interpolation iter.  ....    10
   Max. Number of Micro iterations      ....    24
   Max. Number of Macro iterations      .... Maxiter - #DIIS iter
   Number of Davidson start vectors     ....     2
   Converg. threshold    (grad. norm)   ....   1.000e-05
   Grad. Scal. Fac. for Micro threshold ....   0.100
   Minimum threshold for Micro iter.    ....   1.000e-02
   NR start threshold (gradient norm)   ....   1.000e-04
   Initial trust radius                 ....   0.400
   Minimum AH scaling param. (alpha)    ....   1.000
   Maximum AH scaling param. (alpha)    .... 1000.000
   Quad. conv. algorithm                .... NR
   White noise on init. David. guess    .... on
   Maximum white noise                  ....   0.010
   Pseudo random numbers                .... off
   Inactive MOs                         .... canonical
   Orbital update algorithm             .... Taylor
   Preconditioner                       .... Diag
   Full preconditioner red. dimension   ....   250
 SOSCF                 CNVSOSCF           .... on
   Start iteration     SOSCFMaxIt         ....   150
   Startup grad/error  SOSCFStart         ....  0.003300
   Hessian update      SOSCFHessUp        .... L-BFGS
   Autom. constraints  SOSCFAutoConstrain .... off
 Level Shifting         CNVShift        .... on
   Level shift para.    LevelShift      ....    0.2500
   Turn off err/grad.   ShiftErr        ....    0.0010
 Zerner damping         CNVZerner       .... off
 Static damping         CNVDamp         .... on
   Fraction old density DampFac         ....    0.7000
   Max. Damping (<1)    DampMax         ....    0.9800
   Min. Damping (>=0)   DampMin         ....    0.0000
   Turn off err/grad.   DampErr         ....    0.1000

SCF Procedure:
 Maximum # iterations   MaxIter         ....   125
 SCF integral mode      SCFMode         .... Direct
   Integral package                     .... SHARK and LIBINT hybrid scheme
 Reset frequency        DirectResetFreq ....    20
 Integral Threshold     Thresh          ....  2.500e-11 Eh
 Primitive CutOff       TCut            ....  2.500e-12 Eh

Convergence Tolerance:
 Convergence Check Mode ConvCheckMode   .... Total+1el-Energy
 Convergence forced     ConvForced      .... 0
 Energy Change          TolE            ....  1.000e-08 Eh
 1-El. energy change                    ....  1.000e-05 Eh
 Orbital Gradient       TolG            ....  1.000e-05
 Orbital Rotation angle TolX            ....  1.000e-05
 DIIS Error             TolErr          ....  5.000e-07

------------------------------
INITIAL GUESS: MODEL POTENTIAL
------------------------------
Loading Hartree-Fock densities                     ... done
Calculating cut-offs                               ... done
Initializing the effective Hamiltonian             ... done
Setting up the integral package (SHARK)            ... done
Starting the Coulomb interaction                   ... done (   0.9 sec)
Making the grid                                    ... done (   0.7 sec)
Mapping shells                                     ... done
Starting the XC term evaluation                    ... done (   1.0 sec)
  promolecular density results
     # of electrons  =    161.995687581
     EX              =   -134.583770317
     EC              =     -5.555730708
     EX+EC           =   -140.139501025
Transforming the Hamiltonian                       ... done (   0.0 sec)
Diagonalizing the Hamiltonian                      ... done (   0.0 sec)
Back transforming the eigenvectors                 ... done (   0.0 sec)
Now organizing SCF variables                       ... done
                      ------------------
                      INITIAL GUESS DONE (   2.8 sec)
                      ------------------
             **** ENERGY FILE WAS UPDATED (C:\Users\jabreumiranda\Radioprotection_Pipeline_Project\06_Quantum_DFT_ORCA\CHEMBL1683055_neutral_opt.en.tmp) ****
Finished Guess after   2.9 sec
Maximum memory used throughout the entire GUESS-calculation: 25.9 MB

-------------------------------------------------------------------------------------------
                                      ORCA LEAN-SCF
                              memory conserving SCF solver
-------------------------------------------------------------------------------------------

--------------------
CPCM SOLVATION MODEL
--------------------
CPCM parameters:
  Epsilon                                         ...      80.1510
  Refrac                                          ...       1.3328
  Rsolv                                           ...       1.3000
  Surface type                                    ... GAUSSIAN VDW
  Discretization scheme                           ... Constant charge density
    Threshold for H atoms                         ...       5.0000 (charges/Ang^2)
    Threshold for non-H atoms                     ...       5.0000 (charges/Ang^2)
  Epsilon function type                           ...         CPCM
Solvent:                                          ... WATER
Radii:
  Scheme                                          ... Element-dependent radii
  Radius for N  used is    3.5149 Bohr (=   1.8600 Ang.)
  Radius for C  used is    3.8550 Bohr (=   2.0400 Ang.)
  Radius for H  used is    2.4944 Bohr (=   1.3200 Ang.)
Calculating surface                               ...        done! (  0.0s)
Cavity surface points                             ...         3388
Cavity Volume                                     ...    2385.2356
Cavity Surface-area                               ...    1210.1181
Calculating surface distance matrix               ...        done! (  0.1s)
Performing Cholesky decomposition & store         ...        done! (  0.4s)
Overall time for CPCM initialization              ...                 0.5s

----------------------------------------D-I-I-S--------------------------------------------
Iteration    Energy (Eh)           Delta-E    RMSDP     MaxDP     DIISErr   Damp  Time(sec)
-------------------------------------------------------------------------------------------
               ***  Starting incremental Fock matrix formation  ***
    1    -1003.8851385835550900     0.00e+00  2.46e-03  9.19e-02  2.20e-01  0.700  26.3
Warning: op=0 Small HOMO/LUMO gap (   0.093) - skipping pre-diagonalization
         Will do a full diagonalization
    2    -1004.0840824399961093    -1.99e-01  1.73e-03  5.36e-02  1.07e-01  0.700  13.9
                               ***Turning on AO-DIIS***
    3    -1004.1739749713428864    -8.99e-02  8.38e-04  1.55e-02  4.06e-02  0.700  13.7
    4    -1004.2262599527980456    -5.23e-02  1.63e-03  2.80e-02  2.37e-02  0.000  13.1
    5    -1004.3374845658604499    -1.11e-01  2.08e-04  6.30e-03  5.10e-03  0.000  13.0
                              *** Initializing SOSCF ***
---------------------------------------S-O-S-C-F--------------------------------------
Iteration    Energy (Eh)           Delta-E    RMSDP     MaxDP     MaxGrad    Time(sec)
--------------------------------------------------------------------------------------
    6    -1004.3380130800073857    -5.29e-04  7.96e-05  1.92e-03  2.43e-03    11.9
               *** Restarting incremental Fock matrix formation ***
    7    -1004.3380117936999341     1.29e-06  4.95e-05  1.22e-03  1.95e-04    25.8
    8    -1004.3380157533251804    -3.96e-06  1.85e-05  7.85e-04  2.06e-04    18.0
    9    -1004.3380182583377973    -2.51e-06  1.29e-05  4.43e-04  9.19e-05    16.2
   10    -1004.3380185991481994    -3.41e-07  3.92e-06  1.60e-04  4.37e-05    15.7
   11    -1004.3380188567130062    -2.58e-07  2.08e-06  4.94e-05  8.41e-06    12.9
   12    -1004.3380188562537114     4.59e-10  7.01e-07  3.70e-05  7.91e-06    11.9
                 **** Energy Check signals convergence ****

               *****************************************************
               *                     SUCCESS                       *
               *           SCF CONVERGED AFTER  12 CYCLES          *
               *****************************************************

Recomputing exchange energy using gridx3       ... done (   39.740 sec)
Old exchange energy                            :    -27.237945159 Eh
New exchange energy                            :    -27.237973227 Eh
Exchange energy change after final integration :     -0.000028069 Eh
Total energy after final integration           :  -1004.338046922 Eh
             **** ENERGY FILE WAS UPDATED (C:\Users\jabreumiranda\Radioprotection_Pipeline_Project\06_Quantum_DFT_ORCA\CHEMBL1683055_neutral_opt.en.tmp) ****

----------------
TOTAL SCF ENERGY
----------------

Total Energy       :      -1004.33804692244769 Eh          -27329.42766 eV

Components:
Nuclear Repulsion  :       1750.08629305086970 Eh           47622.26910 eV
Electronic Energy  :      -2754.39041258619091 Eh          -74950.77355 eV
One Electron Energy:      -4837.06728685473900 Eh         -131623.29247 eV
Two Electron Energy:       2082.67687426854809 Eh           56672.51892 eV
CPCM Dielectric    :         -0.03389931835660 Eh              -0.92245 eV

Virial components:
Potential Energy   :      -1999.32349329420208 Eh          -54404.35812 eV
Kinetic Energy     :        994.98544637175439 Eh           27074.93046 eV
Virial Ratio       :          2.00939973603111

DFT components:
N(Alpha)           :       80.999994680509 electrons
N(Beta)            :       80.999994680509 electrons
N(Total)           :      161.999989361018 electrons
E(X)               :     -108.250394468895 Eh       
E(C)               :       -6.539149631690 Eh       
E(XC)              :     -114.789544100584 Eh       

CPCM Solvation Model Properties:
Surface-charge          :         -0.02745973455509
Corrected charge        :         -0.00000000000000
Outlying charge corr.   :          0.00003807661844 Eh               0.00104 eV
Free-energy (cav+disp)  :  This term is not implemented in the current solvation scheme

---------------
SCF CONVERGENCE
---------------

  Last Energy change         ...   -4.5929e-10  Tolerance :   1.0000e-08
  Last MAX-Density change    ...    3.7028e-05  Tolerance :   1.0000e-07
  Last RMS-Density change    ...    7.0135e-07  Tolerance :   5.0000e-09
  Last DIIS Error            ...    2.4338e-03  Tolerance :   5.0000e-07
  Last Orbital Gradient      ...    7.9085e-06  Tolerance :   1.0000e-05
  Last Orbital Rotation      ...    2.7414e-05  Tolerance :   1.0000e-05


----------------
ORBITAL ENERGIES
----------------

  NO   OCC          E(Eh)            E(eV) 
   0   2.0000     -14.365322      -390.9003 
   1   2.0000     -14.340667      -390.2294 
   2   2.0000     -14.337558      -390.1448 
   3   2.0000     -14.336183      -390.1074 
   4   2.0000     -14.293137      -388.9360 
   5   2.0000     -10.280704      -279.7522 
   6   2.0000     -10.228154      -278.3222 
   7   2.0000     -10.228072      -278.3200 
   8   2.0000     -10.227685      -278.3095 
   9   2.0000     -10.227600      -278.3071 
  10   2.0000     -10.214944      -277.9628 
  11   2.0000     -10.207365      -277.7565 
  12   2.0000     -10.201183      -277.5883 
  13   2.0000     -10.199894      -277.5532 
  14   2.0000     -10.199055      -277.5304 
  15   2.0000     -10.198521      -277.5159 
  16   2.0000     -10.193968      -277.3920 
  17   2.0000     -10.193309      -277.3740 
  18   2.0000     -10.192983      -277.3652 
  19   2.0000     -10.192522      -277.3526 
  20   2.0000     -10.190974      -277.3105 
  21   2.0000     -10.189699      -277.2758 
  22   2.0000     -10.182546      -277.0812 
  23   2.0000     -10.181842      -277.0620 
  24   2.0000      -1.022893       -27.8343 
  25   2.0000      -0.979440       -26.6519 
  26   2.0000      -0.908148       -24.7120 
  27   2.0000      -0.904092       -24.6016 
  28   2.0000      -0.871269       -23.7084 
  29   2.0000      -0.867085       -23.5946 
  30   2.0000      -0.846278       -23.0284 
  31   2.0000      -0.824087       -22.4245 
  32   2.0000      -0.769668       -20.9437 
  33   2.0000      -0.761483       -20.7210 
  34   2.0000      -0.736124       -20.0310 
  35   2.0000      -0.728725       -19.8296 
  36   2.0000      -0.715890       -19.4804 
  37   2.0000      -0.683953       -18.6113 
  38   2.0000      -0.641642       -17.4600 
  39   2.0000      -0.626702       -17.0534 
  40   2.0000      -0.615641       -16.7524 
  41   2.0000      -0.608283       -16.5522 
  42   2.0000      -0.604094       -16.4382 
  43   2.0000      -0.594838       -16.1864 
  44   2.0000      -0.561766       -15.2864 
  45   2.0000      -0.557959       -15.1828 
  46   2.0000      -0.546355       -14.8671 
  47   2.0000      -0.521276       -14.1846 
  48   2.0000      -0.503595       -13.7035 
  49   2.0000      -0.502027       -13.6608 
  50   2.0000      -0.482871       -13.1396 
  51   2.0000      -0.476269       -12.9599 
  52   2.0000      -0.468717       -12.7544 
  53   2.0000      -0.456364       -12.4183 
  54   2.0000      -0.455302       -12.3894 
  55   2.0000      -0.451401       -12.2832 
  56   2.0000      -0.444232       -12.0882 
  57   2.0000      -0.437064       -11.8931 
  58   2.0000      -0.435694       -11.8558 
  59   2.0000      -0.430776       -11.7220 
  60   2.0000      -0.427546       -11.6341 
  61   2.0000      -0.405423       -11.0321 
  62   2.0000      -0.384704       -10.4683 
  63   2.0000      -0.381811       -10.3896 
  64   2.0000      -0.373392       -10.1605 
  65   2.0000      -0.364752        -9.9254 
  66   2.0000      -0.363026        -9.8784 
  67   2.0000      -0.355527        -9.6744 
  68   2.0000      -0.355035        -9.6610 
  69   2.0000      -0.353003        -9.6057 
  70   2.0000      -0.328295        -8.9334 
  71   2.0000      -0.313833        -8.5398 
  72   2.0000      -0.308118        -8.3843 
  73   2.0000      -0.294905        -8.0248 
  74   2.0000      -0.276274        -7.5178 
  75   2.0000      -0.269721        -7.3395 
  76   2.0000      -0.262804        -7.1512 
  77   2.0000      -0.255861        -6.9623 
  78   2.0000      -0.228258        -6.2112 
  79   2.0000      -0.224140        -6.0992 
  80   2.0000      -0.202495        -5.5102 
  81   0.0000      -0.105193        -2.8625 
  82   0.0000      -0.030562        -0.8316 
  83   0.0000      -0.012082        -0.3288 
  84   0.0000      -0.008009        -0.2179 
  85   0.0000       0.010696         0.2911 
  86   0.0000       0.020158         0.5485 
  87   0.0000       0.048985         1.3329 
  88   0.0000       0.064938         1.7671 
  89   0.0000       0.077454         2.1076 
  90   0.0000       0.080639         2.1943 
  91   0.0000       0.090764         2.4698 
*Only the first 10 virtual orbitals were printed.

                    ********************************
                    * MULLIKEN POPULATION ANALYSIS *
                    ********************************

-----------------------
MULLIKEN ATOMIC CHARGES
-----------------------
   0 N :   -0.037659
   1 C :   -0.011053
   2 N :   -0.197077
   3 C :    0.058187
   4 C :   -0.117557
   5 C :   -0.023054
   6 C :    0.045094
   7 C :    0.079793
   8 C :    0.006980
   9 C :   -0.047020
  10 C :    0.040607
  11 N :   -0.051592
  12 C :    0.043662
  13 C :   -0.046011
  14 C :    0.030443
  15 C :    0.032020
  16 C :   -0.047295
  17 C :    0.045653
  18 N :   -0.054104
  19 C :    0.056685
  20 C :   -0.079785
  21 C :   -0.124400
  22 C :    0.118471
  23 N :   -0.042125
  24 H :    0.151280
  25 H :    0.162361
  26 H :   -0.031496
  27 H :   -0.015263
  28 H :    0.000435
  29 H :   -0.021976
  30 H :   -0.021391
  31 H :    0.012809
  32 H :    0.013123
  33 H :   -0.021720
  34 H :   -0.035692
  35 H :   -0.023602
  36 H :    0.152269
Sum of atomic charges:   -0.0000000

--------------------------------
MULLIKEN REDUCED ORBITAL CHARGES
--------------------------------
  0 N s       :     3.266194  s :     3.266194
      pz      :     1.573627  p :     3.754792
      px      :     1.108877
      py      :     1.072288
      dz2     :     0.001258  d :     0.016673
      dxz     :     0.003075
      dyz     :     0.003797
      dx2y2   :     0.002947
      dxy     :     0.005596

  1 C s       :     3.054737  s :     3.054737
      pz      :     0.946251  p :     2.848469
      px      :     0.885252
      py      :     1.016966
      dz2     :     0.008204  d :     0.107847
      dxz     :     0.018199
      dyz     :     0.020978
      dx2y2   :     0.025048
      dxy     :     0.035418

  2 N s       :     3.451620  s :     3.451620
      pz      :     1.313313  p :     3.716663
      px      :     1.252227
      py      :     1.151123
      dz2     :     0.003423  d :     0.028794
      dxz     :     0.004118
      dyz     :     0.005249
      dx2y2   :     0.012142
      dxy     :     0.003861

  3 C s       :     3.032453  s :     3.032453
      pz      :     1.013798  p :     2.845907
      px      :     0.926412
      py      :     0.905698
      dz2     :     0.005336  d :     0.063452
      dxz     :     0.012017
      dyz     :     0.007603
      dx2y2   :     0.016744
      dxy     :     0.021752

  4 C s       :     3.356585  s :     3.356585
      pz      :     1.013798  p :     2.727091
      px      :     0.855730
      py      :     0.857563
      dz2     :     0.002989  d :     0.033881
      dxz     :     0.005398
      dyz     :     0.003992
      dx2y2   :     0.009600
      dxy     :     0.011901

  5 C s       :     3.226662  s :     3.226662
      pz      :     1.019763  p :     2.762090
      px      :     0.894777
      py      :     0.847551
      dz2     :     0.003099  d :     0.034302
      dxz     :     0.005735
      dyz     :     0.003618
      dx2y2   :     0.010381
      dxy     :     0.011469

  6 C s       :     3.043815  s :     3.043815
      pz      :     1.029885  p :     2.868922
      px      :     0.910409
      py      :     0.928628
      dz2     :     0.003307  d :     0.042169
      dxz     :     0.005278
      dyz     :     0.007643
      dx2y2   :     0.013280
      dxy     :     0.012660

  7 C s       :     3.046563  s :     3.046563
      pz      :     0.933480  p :     2.829694
      px      :     0.926777
      py      :     0.969437
      dz2     :     0.008742  d :     0.043951
      dxz     :     0.012061
      dyz     :     0.005695
      dx2y2   :     0.009080
      dxy     :     0.008372

  8 C s       :     3.246940  s :     3.246940
      pz      :     0.913080  p :     2.711201
      px      :     0.873702
      py      :     0.924419
      dz2     :     0.006541  d :     0.034879
      dxz     :     0.009639
      dyz     :     0.004736
      dx2y2   :     0.006375
      dxy     :     0.007588

  9 C s       :     3.344531  s :     3.344531
      pz      :     0.863853  p :     2.668835
      px      :     0.874294
      py      :     0.930687
      dz2     :     0.004997  d :     0.033655
      dxz     :     0.009866
      dyz     :     0.004095
      dx2y2   :     0.006420
      dxy     :     0.008277

 10 C s       :     2.998295  s :     2.998295
      pz      :     1.007817  p :     2.898948
      px      :     0.919343
      py      :     0.971788
      dz2     :     0.010518  d :     0.062150
      dxz     :     0.017943
      dyz     :     0.005967
      dx2y2   :     0.013256
      dxy     :     0.014466

 11 N s       :     3.431716  s :     3.431716
      pz      :     1.366699  p :     3.591873
      px      :     1.011398
      py      :     1.213776
      dz2     :     0.004601  d :     0.028003
      dxz     :     0.007777
      dyz     :     0.004206
      dx2y2   :     0.005596
      dxy     :     0.005823

 12 C s       :     3.000341  s :     3.000341
      pz      :     1.029781  p :     2.894151
      px      :     0.864897
      py      :     0.999473
      dz2     :     0.011996  d :     0.061846
      dxz     :     0.014612
      dyz     :     0.009039
      dx2y2   :     0.013504
      dxy     :     0.012694

 13 C s       :     3.336451  s :     3.336451
      pz      :     0.828929  p :     2.675956
      px      :     0.952727
      py      :     0.894300
      dz2     :     0.005855  d :     0.033605
      dxz     :     0.008404
      dyz     :     0.004453
      dx2y2   :     0.007939
      dxy     :     0.006953

 14 C s       :     3.179355  s :     3.179355
      pz      :     0.947619  p :     2.754552
      px      :     0.848628
      py      :     0.958305
      dz2     :     0.008131  d :     0.035651
      dxz     :     0.008356
      dyz     :     0.005699
      dx2y2   :     0.007737
      dxy     :     0.005728

 15 C s       :     3.179413  s :     3.179413
      pz      :     0.916312  p :     2.752861
      px      :     0.910880
      py      :     0.925669
      dz2     :     0.006677  d :     0.035707
      dxz     :     0.009920
      dyz     :     0.004823
      dx2y2   :     0.006539
      dxy     :     0.007747

 16 C s       :     3.336428  s :     3.336428
      pz      :     0.868259  p :     2.677322
      px      :     0.873732
      py      :     0.935331
      dz2     :     0.004984  d :     0.033545
      dxz     :     0.009861
      dyz     :     0.004086
      dx2y2   :     0.006408
      dxy     :     0.008206

 17 C s       :     3.000106  s :     3.000106
      pz      :     1.001679  p :     2.892259
      px      :     0.920394
      py      :     0.970186
      dz2     :     0.010484  d :     0.061982
      dxz     :     0.017892
      dyz     :     0.005951
      dx2y2   :     0.013179
      dxy     :     0.014475

 18 N s       :     3.429965  s :     3.429965
      pz      :     1.367356  p :     3.596265
      px      :     1.010572
      py      :     1.218336
      dz2     :     0.004588  d :     0.027875
      dxz     :     0.007712
      dyz     :     0.004204
      dx2y2   :     0.005596
      dxy     :     0.005774

 19 C s       :     2.994178  s :     2.994178
      pz      :     1.028807  p :     2.886996
      px      :     0.863581
      py      :     0.994608
      dz2     :     0.011952  d :     0.062142
      dxz     :     0.014693
      dyz     :     0.009073
      dx2y2   :     0.013456
      dxy     :     0.012968

 20 C s       :     3.420996  s :     3.420996
      pz      :     0.813464  p :     2.625940
      px      :     0.914857
      py      :     0.897619
      dz2     :     0.005687  d :     0.032849
      dxz     :     0.008328
      dyz     :     0.004331
      dx2y2   :     0.007698
      dxy     :     0.006805

 21 C s       :     3.406303  s :     3.406303
      pz      :     1.025546  p :     2.684349
      px      :     0.911367
      py      :     0.747435
      dz2     :     0.003083  d :     0.033748
      dxz     :     0.005905
      dyz     :     0.003896
      dx2y2   :     0.011268
      dxy     :     0.009596

 22 C s       :     3.011068  s :     3.011068
      pz      :     1.018990  p :     2.810193
      px      :     0.782847
      py      :     1.008356
      dz2     :     0.005396  d :     0.060269
      dxz     :     0.010579
      dyz     :     0.009913
      dx2y2   :     0.013278
      dxy     :     0.021103

 23 N s       :     3.329334  s :     3.329334
      pz      :     1.574346  p :     3.689675
      px      :     1.101970
      py      :     1.013358
      dz2     :     0.002530  d :     0.023116
      dxz     :     0.004350
      dyz     :     0.002337
      dx2y2   :     0.007249
      dxy     :     0.006650

 24 H s       :     0.804028  s :     0.804028
      pz      :     0.012819  p :     0.044692
      px      :     0.019268
      py      :     0.012606

 25 H s       :     0.792102  s :     0.792102
      pz      :     0.014436  p :     0.045536
      px      :     0.007767
      py      :     0.023333

 26 H s       :     1.008313  s :     1.008313
      pz      :     0.004927  p :     0.023183
      px      :     0.006352
      py      :     0.011904

 27 H s       :     0.991988  s :     0.991988
      pz      :     0.004976  p :     0.023276
      px      :     0.005891
      py      :     0.012409

 28 H s       :     0.976431  s :     0.976431
      pz      :     0.007728  p :     0.023134
      px      :     0.008221
      py      :     0.007185

 29 H s       :     0.998837  s :     0.998837
      pz      :     0.011111  p :     0.023139
      px      :     0.004579
      py      :     0.007449

 30 H s       :     0.998262  s :     0.998262
      pz      :     0.011104  p :     0.023129
      px      :     0.004502
      py      :     0.007522

 31 H s       :     0.964090  s :     0.964090
      pz      :     0.004278  p :     0.023101
      px      :     0.014934
      py      :     0.003889

 32 H s       :     0.963783  s :     0.963783
      pz      :     0.007527  p :     0.023094
      px      :     0.008385
      py      :     0.007181

 33 H s       :     0.998590  s :     0.998590
      pz      :     0.011066  p :     0.023130
      px      :     0.004595
      py      :     0.007469

 34 H s       :     1.012463  s :     1.012463
      pz      :     0.011277  p :     0.023229
      px      :     0.004385
      py      :     0.007567

 35 H s       :     1.000126  s :     1.000126
      pz      :     0.005202  p :     0.023476
      px      :     0.006160
      py      :     0.012114

 36 H s       :     0.803908  s :     0.803908
      pz      :     0.010620  p :     0.043823
      px      :     0.006415
      py      :     0.026788



                     *******************************
                     * LOEWDIN POPULATION ANALYSIS *
                     *******************************

----------------------
LOEWDIN ATOMIC CHARGES
----------------------
   0 N :   -0.006387
   1 C :    0.052177
   2 N :   -0.227926
   3 C :   -0.035917
   4 C :   -0.047899
   5 C :   -0.044626
   6 C :   -0.044935
   7 C :   -0.006093
   8 C :   -0.001299
   9 C :   -0.017189
  10 C :   -0.016863
  11 N :   -0.067953
  12 C :   -0.017490
  13 C :   -0.018877
  14 C :   -0.012170
  15 C :   -0.010415
  16 C :   -0.020321
  17 C :   -0.015355
  18 N :   -0.072424
  19 C :   -0.014552
  20 C :   -0.020333
  21 C :   -0.045721
  22 C :   -0.007254
  23 N :    0.057151
  24 H :    0.099741
  25 H :    0.103396
  26 H :    0.029193
  27 H :    0.029418
  28 H :    0.038893
  29 H :    0.036554
  30 H :    0.035353
  31 H :    0.040297
  32 H :    0.040430
  33 H :    0.035186
  34 H :    0.032498
  35 H :    0.033979
  36 H :    0.107735

-------------------------------
LOEWDIN REDUCED ORBITAL CHARGES
-------------------------------
  0 N s       :     3.043272  s :     3.043272
      pz      :     1.541700  p :     3.919258
      px      :     1.196002
      py      :     1.181557
      dz2     :     0.002868  d :     0.043857
      dxz     :     0.006090
      dyz     :     0.008368
      dx2y2   :     0.010517
      dxy     :     0.016014

  1 C s       :     2.806023  s :     2.806023
      pz      :     0.935758  p :     2.901283
      px      :     0.939212
      py      :     1.026313
      dz2     :     0.017698  d :     0.240517
      dxz     :     0.036726
      dyz     :     0.041648
      dx2y2   :     0.060725
      dxy     :     0.083720

  2 N s       :     3.224619  s :     3.224619
      pz      :     1.315840  p :     3.943097
      px      :     1.337410
      py      :     1.289846
      dz2     :     0.006785  d :     0.060210
      dxz     :     0.007028
      dyz     :     0.008330
      dx2y2   :     0.029392
      dxy     :     0.008675

  3 C s       :     2.831400  s :     2.831400
      pz      :     0.996514  p :     3.049848
      px      :     0.988993
      py      :     1.064341
      dz2     :     0.011550  d :     0.154670
      dxz     :     0.024657
      dyz     :     0.016108
      dx2y2   :     0.045469
      dxy     :     0.056886

  4 C s       :     2.863889  s :     2.863889
      pz      :     1.005561  p :     3.095437
      px      :     1.050090
      py      :     1.039786
      dz2     :     0.006887  d :     0.088573
      dxz     :     0.012038
      dyz     :     0.008252
      dx2y2   :     0.028571
      dxy     :     0.032824

  5 C s       :     2.860461  s :     2.860461
      pz      :     1.013907  p :     3.094811
      px      :     1.045033
      py      :     1.035872
      dz2     :     0.007071  d :     0.089355
      dxz     :     0.012684
      dyz     :     0.007613
      dx2y2   :     0.029661
      dxy     :     0.032326

  6 C s       :     2.843789  s :     2.843789
      pz      :     1.002071  p :     3.092526
      px      :     1.018752
      py      :     1.071702
      dz2     :     0.007747  d :     0.108620
      dxz     :     0.011382
      dyz     :     0.016696
      dx2y2   :     0.037538
      dxy     :     0.035257

  7 C s       :     2.848108  s :     2.848108
      pz      :     1.025201  p :     3.045963
      px      :     1.039368
      py      :     0.981394
      dz2     :     0.021182  d :     0.112022
      dxz     :     0.030939
      dyz     :     0.015702
      dx2y2   :     0.023316
      dxy     :     0.020883

  8 C s       :     2.863253  s :     2.863253
      pz      :     1.012319  p :     3.047421
      px      :     1.053483
      py      :     0.981619
      dz2     :     0.016094  d :     0.090624
      dxz     :     0.026214
      dyz     :     0.012163
      dx2y2   :     0.017440
      dxy     :     0.018713

  9 C s       :     2.864379  s :     2.864379
      pz      :     1.014665  p :     3.063301
      px      :     1.056702
      py      :     0.991934
      dz2     :     0.013141  d :     0.089509
      dxz     :     0.026006
      dyz     :     0.010548
      dx2y2   :     0.019088
      dxy     :     0.020726

 10 C s       :     2.830552  s :     2.830552
      pz      :     1.029015  p :     3.029930
      px      :     1.005762
      py      :     0.995153
      dz2     :     0.025831  d :     0.156381
      dxz     :     0.046182
      dyz     :     0.016533
      dx2y2   :     0.033730
      dxy     :     0.034105

 11 N s       :     3.223133  s :     3.223133
      pz      :     1.385519  p :     3.785635
      px      :     1.167970
      py      :     1.232147
      dz2     :     0.007962  d :     0.059184
      dxz     :     0.017336
      dyz     :     0.006982
      dx2y2   :     0.013865
      dxy     :     0.013039

 12 C s       :     2.831584  s :     2.831584
      pz      :     1.012161  p :     3.030346
      px      :     1.040144
      py      :     0.978042
      dz2     :     0.028902  d :     0.155560
      dxz     :     0.038397
      dyz     :     0.023999
      dx2y2   :     0.033729
      dxy     :     0.030532

 13 C s       :     2.865020  s :     2.865020
      pz      :     1.018060  p :     3.064519
      px      :     1.049879
      py      :     0.996580
      dz2     :     0.014380  d :     0.089338
      dxz     :     0.023655
      dyz     :     0.011116
      dx2y2   :     0.021471
      dxy     :     0.018716

 14 C s       :     2.861305  s :     2.861305
      pz      :     1.023126  p :     3.058858
      px      :     1.046020
      py      :     0.989711
      dz2     :     0.019865  d :     0.092007
      dxz     :     0.022572
      dyz     :     0.015822
      dx2y2   :     0.019285
      dxy     :     0.014463

 15 C s       :     2.861487  s :     2.861487
      pz      :     1.017044  p :     3.056838
      px      :     1.057110
      py      :     0.982684
      dz2     :     0.016416  d :     0.092091
      dxz     :     0.026418
      dyz     :     0.012560
      dx2y2   :     0.017749
      dxy     :     0.018948

 16 C s       :     2.864881  s :     2.864881
      pz      :     1.014920  p :     3.066211
      px      :     1.057336
      py      :     0.993956
      dz2     :     0.013069  d :     0.089229
      dxz     :     0.026070
      dyz     :     0.010508
      dx2y2   :     0.018975
      dxy     :     0.020608

 17 C s       :     2.831794  s :     2.831794
      pz      :     1.028297  p :     3.027782
      px      :     1.005564
      py      :     0.993921
      dz2     :     0.025728  d :     0.155779
      dxz     :     0.046018
      dyz     :     0.016456
      dx2y2   :     0.033508
      dxy     :     0.034069

 18 N s       :     3.222677  s :     3.222677
      pz      :     1.386499  p :     3.790807
      px      :     1.167305
      py      :     1.237004
      dz2     :     0.007927  d :     0.058940
      dxz     :     0.017210
      dyz     :     0.006984
      dx2y2   :     0.013878
      dxy     :     0.012940

 19 C s       :     2.831380  s :     2.831380
      pz      :     1.010254  p :     3.027030
      px      :     1.040858
      py      :     0.975918
      dz2     :     0.028821  d :     0.156142
      dxz     :     0.038502
      dyz     :     0.024071
      dx2y2   :     0.033658
      dxy     :     0.031089

 20 C s       :     2.865052  s :     2.865052
      pz      :     1.022570  p :     3.067149
      px      :     1.039907
      py      :     1.004671
      dz2     :     0.014386  d :     0.088133
      dxz     :     0.023462
      dyz     :     0.010812
      dx2y2   :     0.021096
      dxy     :     0.018377

 21 C s       :     2.859595  s :     2.859595
      pz      :     1.026081  p :     3.097352
      px      :     1.031090
      py      :     1.040180
      dz2     :     0.006899  d :     0.088775
      dxz     :     0.013103
      dyz     :     0.008113
      dx2y2   :     0.031511
      dxy     :     0.029149

 22 C s       :     2.823717  s :     2.823717
      pz      :     1.016419  p :     3.034660
      px      :     1.033709
      py      :     0.984531
      dz2     :     0.011900  d :     0.148877
      dxz     :     0.022131
      dyz     :     0.022075
      dx2y2   :     0.034401
      dxy     :     0.058371

 23 N s       :     3.027586  s :     3.027586
      pz      :     1.521741  p :     3.855170
      px      :     1.179213
      py      :     1.154216
      dz2     :     0.005052  d :     0.060093
      dxz     :     0.009247
      dyz     :     0.004411
      dx2y2   :     0.020705
      dxy     :     0.020678

 24 H s       :     0.779822  s :     0.779822
      pz      :     0.039874  p :     0.120437
      px      :     0.049811
      py      :     0.030752

 25 H s       :     0.774010  s :     0.774010
      pz      :     0.044122  p :     0.122594
      px      :     0.018748
      py      :     0.059725

 26 H s       :     0.900846  s :     0.900846
      pz      :     0.015841  p :     0.069961
      px      :     0.019193
      py      :     0.034927

 27 H s       :     0.901524  s :     0.901524
      pz      :     0.015629  p :     0.069058
      px      :     0.017607
      py      :     0.035822

 28 H s       :     0.892144  s :     0.892144
      pz      :     0.023209  p :     0.068963
      px      :     0.024143
      py      :     0.021611

 29 H s       :     0.893624  s :     0.893624
      pz      :     0.032955  p :     0.069822
      px      :     0.014053
      py      :     0.022813

 30 H s       :     0.894865  s :     0.894865
      pz      :     0.032712  p :     0.069782
      px      :     0.014311
      py      :     0.022758

 31 H s       :     0.891218  s :     0.891218
      pz      :     0.013690  p :     0.068485
      px      :     0.042170
      py      :     0.012625

 32 H s       :     0.891117  s :     0.891117
      pz      :     0.022404  p :     0.068452
      px      :     0.024597
      py      :     0.021451

 33 H s       :     0.895001  s :     0.895001
      pz      :     0.032834  p :     0.069813
      px      :     0.014127
      py      :     0.022852

 34 H s       :     0.897052  s :     0.897052
      pz      :     0.033546  p :     0.070450
      px      :     0.013704
      py      :     0.023200

 35 H s       :     0.895055  s :     0.895055
      pz      :     0.016249  p :     0.070965
      px      :     0.019115
      py      :     0.035601

 36 H s       :     0.766577  s :     0.766577
      pz      :     0.035674  p :     0.125688
      px      :     0.019448
      py      :     0.070566



                      *****************************
                      * MAYER POPULATION ANALYSIS *
                      *****************************

  NA   - Mulliken gross atomic population
  ZA   - Total nuclear charge
  QA   - Mulliken gross atomic charge
  VA   - Mayer's total valence
  BVA  - Mayer's bonded valence
  FA   - Mayer's free valence

  ATOM       NA         ZA         QA         VA         BVA        FA
  0 N      7.0377     7.0000    -0.0377     3.2340     3.2340    -0.0000
  1 C      6.0111     6.0000    -0.0111     4.3183     4.3183    -0.0000
  2 N      7.1971     7.0000    -0.1971     3.0130     3.0130    -0.0000
  3 C      5.9418     6.0000     0.0582     3.9912     3.9912     0.0000
  4 C      6.1176     6.0000    -0.1176     3.8116     3.8116     0.0000
  5 C      6.0231     6.0000    -0.0231     3.7904     3.7904     0.0000
  6 C      5.9549     6.0000     0.0451     3.6879     3.6879    -0.0000
  7 C      5.9202     6.0000     0.0798     3.6632     3.6632     0.0000
  8 C      5.9930     6.0000     0.0070     3.7716     3.7716    -0.0000
  9 C      6.0470     6.0000    -0.0470     3.7669     3.7669     0.0000
 10 C      5.9594     6.0000     0.0406     3.9943     3.9943     0.0000
 11 N      7.0516     7.0000    -0.0516     3.1157     3.1157    -0.0000
 12 C      5.9563     6.0000     0.0437     4.0043     4.0043     0.0000
 13 C      6.0460     6.0000    -0.0460     3.7764     3.7764     0.0000
 14 C      5.9696     6.0000     0.0304     3.7421     3.7421     0.0000
 15 C      5.9680     6.0000     0.0320     3.7419     3.7419    -0.0000
 16 C      6.0473     6.0000    -0.0473     3.7764     3.7764    -0.0000
 17 C      5.9543     6.0000     0.0457     4.0058     4.0058    -0.0000
 18 N      7.0541     7.0000    -0.0541     3.1112     3.1112    -0.0000
 19 C      5.9433     6.0000     0.0567     4.0035     4.0035     0.0000
 20 C      6.0798     6.0000    -0.0798     3.7572     3.7572     0.0000
 21 C      6.1244     6.0000    -0.1244     3.7676     3.7676     0.0000
 22 C      5.8815     6.0000     0.1185     3.8828     3.8828    -0.0000
 23 N      7.0421     7.0000    -0.0421     3.3225     3.3225    -0.0000
 24 H      0.8487     1.0000     0.1513     1.0022     1.0022    -0.0000
 25 H      0.8376     1.0000     0.1624     0.9870     0.9870    -0.0000
 26 H      1.0315     1.0000    -0.0315     0.9919     0.9919    -0.0000
 27 H      1.0153     1.0000    -0.0153     0.9873     0.9873    -0.0000
 28 H      0.9996     1.0000     0.0004     0.9918     0.9918     0.0000
 29 H      1.0220     1.0000    -0.0220     1.0036     1.0036    -0.0000
 30 H      1.0214     1.0000    -0.0214     1.0037     1.0037     0.0000
 31 H      0.9872     1.0000     0.0128     0.9795     0.9795    -0.0000
 32 H      0.9869     1.0000     0.0131     0.9795     0.9795    -0.0000
 33 H      1.0217     1.0000    -0.0217     1.0038     1.0038    -0.0000
 34 H      1.0357     1.0000    -0.0357     1.0161     1.0161     0.0000
 35 H      1.0236     1.0000    -0.0236     0.9978     0.9978    -0.0000
 36 H      0.8477     1.0000     0.1523     0.9888     0.9888    -0.0000

  Mayer bond orders larger than 0.100000
B(  0-N ,  1-C ) :   1.2988 B(  0-N , 24-H ) :   0.9306 B(  0-N , 25-H ) :   0.9273 
B(  1-C ,  2-N ) :   1.5733 B(  1-C , 23-N ) :   1.1900 B(  2-N ,  3-C ) :   1.3221 
B(  3-C ,  4-C ) :   1.2891 B(  3-C , 22-C ) :   1.2737 B(  4-C ,  5-C ) :   1.3639 
B(  4-C , 21-C ) :   0.1061 B(  4-C , 26-H ) :   1.0194 B(  5-C ,  6-C ) :   1.3415 
B(  5-C , 27-H ) :   0.9914 B(  6-C ,  7-C ) :   0.9546 B(  6-C , 21-C ) :   1.3270 
B(  7-C ,  8-C ) :   1.2340 B(  7-C , 20-C ) :   1.4090 B(  8-C ,  9-C ) :   1.4436 
B(  8-C , 28-H ) :   0.9993 B(  9-C , 10-C ) :   1.2046 B(  9-C , 20-C ) :   0.1193 
B(  9-C , 29-H ) :   1.0072 B( 10-C , 11-N ) :   1.4823 B( 10-C , 19-C ) :   1.1826 
B( 11-N , 12-C ) :   1.4704 B( 11-N , 18-N ) :   0.1011 B( 12-C , 13-C ) :   1.2201 
B( 12-C , 17-C ) :   1.1801 B( 13-C , 14-C ) :   1.4437 B( 13-C , 16-C ) :   0.1237 
B( 13-C , 30-H ) :   1.0058 B( 14-C , 15-C ) :   1.2272 B( 14-C , 31-H ) :   0.9957 
B( 15-C , 16-C ) :   1.4439 B( 15-C , 32-H ) :   0.9958 B( 16-C , 17-C ) :   1.2196 
B( 16-C , 33-H ) :   1.0059 B( 17-C , 18-N ) :   1.4721 B( 18-N , 19-C ) :   1.4721 
B( 19-C , 20-C ) :   1.1977 B( 20-C , 34-H ) :   1.0107 B( 21-C , 22-C ) :   1.2970 
B( 21-C , 35-H ) :   1.0226 B( 22-C , 23-N ) :   1.1481 B( 23-N , 36-H ) :   0.9113 


-------
TIMINGS
-------

Total SCF time: 0 days 0 hours 4 min 3 sec 

Total time                  ....     243.028 sec
Sum of individual times     ....     233.078 sec  ( 95.9%)

SCF preparation             ....       0.738 sec  (  0.3%)
Fock matrix formation       ....     230.781 sec  ( 95.0%)
  Startup                   ....       0.014 sec  (  0.0% of F)
  Split-RI-J                ....      20.804 sec  (  9.0% of F)
  Chain of spheres X        ....     167.191 sec  ( 72.4% of F)
  XC integration            ....      25.919 sec  ( 11.2% of F)
    Basis function eval.    ....       8.370 sec  ( 32.3% of XC)
    Density eval.           ....       5.809 sec  ( 22.4% of XC)
    XC-Functional eval.     ....       0.806 sec  (  3.1% of XC)
    XC-Potential eval.      ....       9.765 sec  ( 37.7% of XC)
  CPCM terms                ....      26.354 sec  ( 11.4% of F)
Diagonalization             ....       0.000 sec  (  0.0%)
Density matrix formation    ....       0.277 sec  (  0.1%)
Total Energy calculation    ....       0.155 sec  (  0.1%)
Population analysis         ....       0.082 sec  (  0.0%)
Orbital Transformation      ....       0.094 sec  (  0.0%)
Orbital Orthonormalization  ....       0.000 sec  (  0.0%)
DIIS solution               ....       0.551 sec  (  0.2%)
SOSCF solution              ....       0.400 sec  (  0.2%)
Finished LeanSCF after 243.3 sec

Maximum memory used throughout the entire LEANSCF-calculation: 111.1 MB

------------------------------------------------------------------------------
                         ORCA PROPERTY INTEGRAL CALCULATIONS
------------------------------------------------------------------------------

GBWName                                   ... C:\Users\jabreumiranda\Radioprotection_Pipeline_Project\06_Quantum_DFT_ORCA\CHEMBL1683055_neutral_opt.gbw
Number of atoms                           ...     37
Number of basis functions                 ...    401
Max core memory                           ...   2000 MB

Dipole integrals                          ... YES
Quadrupole integrals                      ...  NO
Linear momentum integrals                 ...  NO
Angular momentum integrals                ...  NO
Higher moments length integrals           ...  NO
Higher moments velocity integrals         ...  NO
Kinetic energy integrals                  ...  NO
GIAO right hand sides                     ...  NO
GIAO dipole derivative integrals          ...  NO
SOC integrals                             ...  NO
EPR diamagnetic integrals (GIAO)          ...  NO
EPR gauge integrals                       ...  NO
Field gradient integrals                  ...  NO (   0 nuclei)
Spin-dipole/Fermi contact integrals       ...  NO (   0 nuclei)
Contact density integrals                 ...  NO (   0 nuclei)
Nucleus-orbit integrals                   ...  NO (   0 nuclei)
Geometric perturbations                   ...  NO (  37 nuclei)

Choice of electric origin   ... Center of mass
Position of electric origin ... (  0.0580,  0.0391,  0.0433) 
Choice of magnetic origin   ... GIAO
Position of magnetic origin ... (  0.0000,  0.0000,  0.0000) 

Calculating integrals                     ... Electric Dipole (Length)     done (  0.0 sec)

Property integrals calculated in   0.0 sec

Maximum memory used throughout the entire PROPINT-calculation: 27.0 MB


-------------------------------------------------------------------------------
                          DFT DISPERSION CORRECTION                            
                                                                               
                              DFTD3 V3.1  Rev 1                                
                          USING Becke-Johnson damping                          
-------------------------------------------------------------------------------
The B3LYP functional is recognized
Active option DFTDOPT                   ...         4   

molecular C6(AA) [au] = 18963.285155 


            DFT-D V3
 parameters
 s6 scaling factor         :     1.0000 
 a1 scaling factor         :     0.3981 
 s8 scaling factor         :     1.9889 
 a2 scaling factor         :     4.4211 
 ad hoc parameters k1-k3   :    16.0000     1.3333    -4.0000 

 Edisp/kcal,au: -55.273996369974  -0.088084710683 
 E6   /kcal   : -25.461855681 
 E8   /kcal   : -29.812140689 
 % E8         :  53.935200360 

-------------------------   ----------------
Dispersion correction           -0.088084711
-------------------------   ----------------


-------------------------   --------------------
FINAL SINGLE POINT ENERGY     -1004.426131633131
-------------------------   --------------------

------------------------------------------------------------------------------
                         ORCA SCF GRADIENT CALCULATION
------------------------------------------------------------------------------

Nuc. rep. gradient        (SHARK) ... done (  0.0 sec)
HCore & Overlap gradient  (SHARK) ... done (  1.1 sec)
Split-RIJ-J gradient      (SHARK) ... done (  6.5 sec)
COSX-gradient                     ... done ( 98.6 sec)
XC gradient                       ... done ( 16.7 sec)
CPCM gradient                     ... done (  6.1 sec)
Dispersion correction             ... done (  0.1 sec)

-------------------
DISPERSION GRADIENT
-------------------

   1   N   :    0.000457347   -0.000198283   -0.000105058
   2   C   :   -0.003016760    0.002034871    0.000647207
   3   N   :   -0.000138961   -0.000216585    0.000052383
   4   C   :    0.001494493   -0.002656866   -0.000286587
   5   C   :    0.000158187    0.000213070   -0.000059361
   6   C   :    0.000529004    0.000204879   -0.000171839
   7   C   :    0.000422009   -0.000103569   -0.000096835
   8   C   :   -0.000253181    0.000035576    0.000094920
   9   C   :   -0.000322214    0.000110250    0.000285971
  10   C   :   -0.000050009    0.000156948    0.000250157
  11   C   :   -0.000358001   -0.000249408   -0.000261413
  12   N   :   -0.000080490    0.000129348    0.000189357
  13   C   :    0.000463734    0.000003821   -0.000089406
  14   C   :   -0.000279769    0.000039258    0.000109224
  15   C   :   -0.000276990   -0.000020586    0.000028399
  16   C   :   -0.000213461   -0.000127718   -0.000127852
  17   C   :   -0.000156584   -0.000170033   -0.000196060
  18   C   :    0.000313877    0.000238205    0.000253495
  19   N   :    0.000074339   -0.000114283   -0.000177092
  20   C   :   -0.000679281    0.000016057    0.000125813
  21   C   :   -0.000308074    0.000004656   -0.000015022
  22   C   :    0.000207543   -0.000129329    0.000006656
  23   C   :    0.002056858    0.000337145   -0.000451544
  24   N   :    0.000149042    0.000637308   -0.000028489
  25   H   :    0.000196252   -0.000049768   -0.000053920
  26   H   :    0.000176121   -0.000152008   -0.000074870
  27   H   :    0.000107676    0.000310250   -0.000033308
  28   H   :    0.000096688    0.000378868   -0.000075457
  29   H   :   -0.000013014    0.000200063    0.000345422
  30   H   :   -0.000017057    0.000191858    0.000264200
  31   H   :   -0.000196696    0.000129186    0.000212603
  32   H   :   -0.000279306    0.000002316    0.000059479
  33   H   :   -0.000190881   -0.000144900   -0.000155426
  34   H   :   -0.000006111   -0.000190407   -0.000253772
  35   H   :   -0.000079190   -0.000164896   -0.000285823
  36   H   :    0.000009112   -0.000357102    0.000054716
  37   H   :    0.000003749   -0.000328193    0.000019132

Difference to translation invariance:
           :   -0.0000000000    0.0000000000   -0.0000000000

Difference to rotation invariance:
           :   -0.0000000000   -0.0000000000    0.0000000000

Norm of the Dispersion gradient    ...    0.0056977773
RMS gradient                       ...    0.0005408091
MAX gradient                       ...    0.0030167602

------------------
CARTESIAN GRADIENT
------------------

   1   N   :   -0.026843686    0.002288886    0.004661796
   2   C   :    0.016163036    0.006620461    0.001505013
   3   N   :   -0.013151097   -0.017732379    0.003058484
   4   C   :   -0.003617137   -0.030096274   -0.000219904
   5   C   :    0.009208823    0.002095904   -0.002242766
   6   C   :   -0.011925071   -0.005280605    0.000351327
   7   C   :   -0.006461998    0.006868069    0.001208701
   8   C   :    0.010048164    0.020189492    0.025328673
   9   C   :    0.029576032   -0.013372574   -0.020167497
  10   C   :   -0.041225535   -0.018472382   -0.015728820
  11   C   :    0.033223065   -0.002691859   -0.010101270
  12   N   :   -0.000873668   -0.000077526    0.000004154
  13   C   :   -0.016481310   -0.016756479   -0.019028574
  14   C   :    0.043045053    0.005535134   -0.001308718
  15   C   :   -0.006561135   -0.020807232   -0.026445077
  16   C   :   -0.025934718    0.010834196    0.019710399
  17   C   :    0.035629155    0.018393620    0.017412186
  18   C   :   -0.029743160    0.002826691    0.009888550
  19   N   :    0.000237929   -0.000115109    0.000440133
  20   C   :    0.013490758    0.017974123    0.019430871
  21   C   :   -0.039086894   -0.003499410    0.000613485
  22   C   :   -0.004269969   -0.003703267    0.003255843
  23   C   :    0.021793403    0.015259813   -0.005303158
  24   N   :    0.002418230    0.017328030   -0.001323234
  25   H   :    0.000162735    0.000480711   -0.001393300
  26   H   :    0.004771022    0.002965973   -0.001591230
  27   H   :   -0.002014346   -0.005376644    0.000821425
  28   H   :    0.003160504   -0.001423371   -0.000933687
  29   H   :   -0.002443652   -0.001154343   -0.000654254
  30   H   :    0.002562696   -0.001050835   -0.002432580
  31   H   :   -0.000839773   -0.002439600   -0.003106222
  32   H   :    0.003471521   -0.000570788   -0.001496325
  33   H   :    0.001818635    0.002216783    0.002588642
  34   H   :   -0.003093735    0.001273254    0.002303871
  35   H   :   -0.000553965    0.001390411    0.001871032
  36   H   :    0.002769027    0.003234287   -0.000762972
  37   H   :    0.001571062    0.006844836   -0.000214998

Difference to translation invariance:
           :    0.0000000001   -0.0000000000    0.0000000000

Difference to rotation invariance:
           :    0.0001197652    0.0001435481    0.0004321932

Norm of the Cartesian gradient     ...    0.1440231325
RMS gradient                       ...    0.0136700708
MAX gradient                       ...    0.0430450535

-------
TIMINGS
-------

Total SCF gradient time     ....      129.082 sec

Densities                   ....       0.004 sec  (  0.0%)
One electron gradient       ....       1.080 sec  (  0.8%)
RI-J Coulomb gradient       ....       6.519 sec  (  5.1%)
COSX gradient               ....      98.623 sec  ( 76.4%)
XC gradient                 ....      16.692 sec  ( 12.9%)
CPCM gradient               ....       6.069 sec  (  4.7%)
   A-Matrix (El+Nuc)        ....       0.604 sec  (  0.5%)
   Potential                ....       5.465 sec  (  4.2%)

Maximum memory used throughout the entire SCFGRAD-calculation: 59.4 MB
------------------------------------------------------------------------------
                         ORCA GEOMETRY RELAXATION STEP
------------------------------------------------------------------------------

Reading the OPT-File                    .... done
Getting information on internals        .... done
Copying old internal coords+grads       .... done
Making the new internal coordinates     .... (2022 redundants) done
Validating the new internal coordinates .... (2022 redundants) done
Calculating the B-matrix                .... done
Calculating the G,G- and P matrices     .... done
Transforming gradient to internals      .... done
Projecting the internal gradient        .... done
Number of atoms                         ....  37
Number of internal coordinates          .... 207
Current Energy                          .... -1004.426131633 Eh
Current gradient norm                   ....     0.144023133 Eh/bohr
Maximum allowed component of the step   ....  0.300
Current trust radius                    ....  0.300
Evaluating the initial hessian          ....  (Almloef) done
Projecting the Hessian                  .... done
Forming the augmented Hessian           .... done
Diagonalizing the augmented Hessian     .... done
Last element of RFO vector              ....  0.972365103
Lowest eigenvalues of augmented Hessian:
 -0.020518045  0.015131213  0.020647424  0.021529023  0.023511669
Length of the computed step             ....  0.240100582
The final length of the internal step   ....  0.240100582
Converting the step to Cartesian space:
 Initial RMS(Int)=    0.0166881441
Transforming coordinates:
 Iter   0:  RMS(Cart)=    0.0647222802 RMS(Int)=    1.5113023139
 Iter   5:  RMS(Cart)=    0.0000000067 RMS(Int)=    0.0000000022
done
Storing new coordinates                 .... done

                                .--------------------.
          ----------------------|Geometry convergence|-------------------------
          Item                value                   Tolerance       Converged
          ---------------------------------------------------------------------
          RMS gradient        0.0076169434            0.0001000000      NO
          MAX gradient        0.0341510844            0.0003000000      NO
          RMS step            0.0166881441            0.0020000000      NO
          MAX step            0.0737720157            0.0040000000      NO
          -------------------------------------------------------------------------
          ........................................................
          Max(Bonds)      0.0310      Max(Angles)    0.92
          Max(Dihed)        4.23      Max(Improp)    0.00
          ---------------------------------------------------------------------

The optimization has not yet converged - more geometry cycles are needed


    ---------------------------------------------------------------------------
                         Redundant Internal Coordinates
                            (Angstroem and degrees)

        Definition                    Value    dE/dq     Step     New-Value
    ----------------------------------------------------------------------------
     1. B(C   1,N   0)                1.3403 -0.021338  0.0163    1.3566   
     2. B(N   2,C   1)                1.3076 -0.022411  0.0153    1.3229   
     3. B(C   3,N   2)                1.3737 -0.010248  0.0089    1.3827   
     4. B(C   4,C   3)                1.4000 -0.003315  0.0031    1.4031   
     5. B(C   5,C   4)                1.4039  0.005647 -0.0051    1.3989   
     6. B(C   6,C   5)                1.4083 -0.007472  0.0061    1.4143   
     7. B(C   7,C   6)                1.4732 -0.006309  0.0069    1.4801   
     8. B(C   8,C   7)                1.3987 -0.030192  0.0248    1.4235   
     9. B(C   9,C   8)                1.3976  0.016167 -0.0140    1.3836   
    10. B(C  10,C   9)                1.3871 -0.031843  0.0262    1.4133   
    11. B(N  11,C  10)                1.3449  0.000122 -0.0001    1.3449   
    12. B(C  12,N  11)                1.3453 -0.001136  0.0009    1.3462   
    13. B(C  13,C  12)                1.3900 -0.029169  0.0242    1.4142   
    14. B(C  14,C  13)                1.3956  0.012244 -0.0106    1.3851   
    15. B(C  15,C  14)                1.3885 -0.032960  0.0263    1.4147   
    16. B(C  16,C  15)                1.3957  0.012263 -0.0106    1.3851   
    17. B(C  17,C  16)                1.3900 -0.029321  0.0243    1.4143   
    18. B(C  17,C  12)                1.4124 -0.033604  0.0305    1.4429   
    19. B(N  18,C  17)                1.3456 -0.000403  0.0003    1.3459   
    20. B(C  19,N  18)                1.3455 -0.000602  0.0005    1.3460   
    21. B(C  19,C  10)                1.4107 -0.034151  0.0310    1.4417   
    22. B(C  20,C  19)                1.3910 -0.026467  0.0221    1.4131   
    23. B(C  20,C   7)                1.4044  0.012893 -0.0115    1.3929   
    24. B(C  21,C   6)                1.4103  0.000947 -0.0011    1.4092   
    25. B(C  22,C  21)                1.3984  0.005069 -0.0041    1.3943   
    26. B(C  22,C   3)                1.3894 -0.029602  0.0247    1.4141   
    27. B(N  23,C  22)                1.3713 -0.014175  0.0120    1.3833   
    28. B(N  23,C   1)                1.3675 -0.013863  0.0116    1.3790   
    29. B(H  24,N   0)                1.0176  0.000892 -0.0011    1.0165   
    30. B(H  25,N   0)                1.0134 -0.002360  0.0028    1.0162   
    31. B(H  26,C   4)                1.0843 -0.005717  0.0078    1.0921   
    32. B(H  27,C   5)                1.0890 -0.002797  0.0039    1.0929   
    33. B(H  28,C   8)                1.0887 -0.002522  0.0035    1.0922   
    34. B(H  29,C   9)                1.0873 -0.003287  0.0045    1.0918   
    35. B(H  30,C  13)                1.0874 -0.003466  0.0048    1.0921   
    36. B(H  31,C  14)                1.0871 -0.003736  0.0051    1.0922   
    37. B(H  32,C  15)                1.0871 -0.003774  0.0052    1.0923   
    38. B(H  33,C  16)                1.0873 -0.003482  0.0048    1.0921   
    39. B(H  34,C  20)                1.0886 -0.002387  0.0033    1.0919   
    40. B(H  35,C  21)                1.0857 -0.004235  0.0058    1.0915   
    41. B(H  36,N  23)                1.0070 -0.006998  0.0081    1.0151   
    42. A(C   1,N   0,H  24)          113.82 -0.002914    0.57    114.39   
    43. A(H  24,N   0,H  25)          111.76 -0.003155    0.77    112.53   
    44. A(C   1,N   0,H  25)          119.82  0.005917   -0.76    119.07   
    45. A(N   2,C   1,N  23)          111.65 -0.005766    0.73    112.38   
    46. A(N   0,C   1,N  23)          121.05 -0.001665    0.19    121.24   
    47. A(N   0,C   1,N   2)          127.29  0.007435   -0.92    126.37   
    48. A(C   1,N   2,C   3)          105.29  0.000688   -0.01    105.28   
    49. A(N   2,C   3,C  22)          111.01  0.004470   -0.58    110.43   
    50. A(C   4,C   3,C  22)          119.08 -0.000299    0.13    119.21   
    51. A(N   2,C   3,C   4)          129.92 -0.004171    0.45    130.36   
    52. A(C   3,C   4,C   5)          118.64  0.001731   -0.21    118.43   
    53. A(C   5,C   4,H  26)          121.21  0.000115   -0.05    121.16   
    54. A(C   3,C   4,H  26)          120.15 -0.001846    0.26    120.41   
    55. A(C   4,C   5,C   6)          121.95 -0.001210    0.07    122.02   
    56. A(C   4,C   5,H  27)          118.06 -0.001697    0.32    118.38   
    57. A(C   6,C   5,H  27)          119.99  0.002907   -0.39    119.59   
    58. A(C   5,C   6,C   7)          120.51  0.002611   -0.29    120.23   
    59. A(C   5,C   6,C  21)          119.22 -0.005285    0.58    119.80   
    60. A(C   7,C   6,C  21)          120.26  0.002674   -0.29    119.97   
    61. A(C   8,C   7,C  20)          117.66 -0.007770    0.83    118.49   
    62. A(C   6,C   7,C  20)          121.12  0.003837   -0.41    120.70   
    63. A(C   6,C   7,C   8)          121.23  0.003933   -0.42    120.80   
    64. A(C   7,C   8,H  28)          120.48  0.004451   -0.54    119.95   
    65. A(C   9,C   8,H  28)          118.96  0.002107   -0.18    118.78   
    66. A(C   7,C   8,C   9)          120.56 -0.006558    0.71    121.27   
    67. A(C  10,C   9,H  29)          119.05 -0.000349    0.01    119.06   
    68. A(C   8,C   9,H  29)          119.63 -0.003723    0.52    120.15   
    69. A(C   8,C   9,C  10)          121.32  0.004072   -0.53    120.79   
    70. A(N  11,C  10,C  19)          121.42 -0.000481    0.02    121.44   
    71. A(C   9,C  10,C  19)          118.97  0.003482   -0.28    118.69   
    72. A(C   9,C  10,N  11)          119.61 -0.003001    0.26    119.87   
    73. A(C  10,N  11,C  12)          117.37  0.000805   -0.03    117.34   
    74. A(N  11,C  12,C  13)          119.65 -0.001653    0.11    119.76   
    75. A(C  13,C  12,C  17)          119.08  0.001927   -0.11    118.97   
    76. A(N  11,C  12,C  17)          121.27 -0.000274    0.00    121.27   
    77. A(C  14,C  13,H  30)          119.66 -0.004538    0.65    120.31   
    78. A(C  12,C  13,C  14)          121.40  0.004822   -0.64    120.76   
    79. A(C  12,C  13,H  30)          118.94 -0.000284   -0.01    118.93   
    80. A(C  13,C  14,C  15)          119.52 -0.006792    0.76    120.27   
    81. A(C  13,C  14,H  31)          120.08  0.004230   -0.51    119.58   
    82. A(C  15,C  14,H  31)          120.40  0.002562   -0.25    120.15   
    83. A(C  16,C  15,H  32)          120.09  0.004346   -0.52    119.57   
    84. A(C  14,C  15,H  32)          120.39  0.002646   -0.26    120.13   
    85. A(C  14,C  15,C  16)          119.52 -0.006992    0.79    120.30   
    86. A(C  15,C  16,H  33)          119.65 -0.004560    0.65    120.30   
    87. A(C  17,C  16,H  33)          118.94 -0.000260   -0.01    118.93   
    88. A(C  15,C  16,C  17)          121.41  0.004820   -0.64    120.76   
    89. A(C  16,C  17,N  18)          119.64 -0.001651    0.11    119.75   
    90. A(C  12,C  17,N  18)          121.28 -0.000564    0.04    121.32   
    91. A(C  12,C  17,C  16)          119.08  0.002215   -0.15    118.93   
    92. A(C  17,N  18,C  19)          117.42  0.000873   -0.04    117.38   
    93. A(N  18,C  19,C  20)          119.55 -0.001959    0.13    119.68   
    94. A(C  10,C  19,C  20)          119.21  0.002318   -0.14    119.07   
    95. A(C  10,C  19,N  18)          121.24 -0.000359    0.01    121.25   
    96. A(C  19,C  20,H  34)          117.87 -0.002043    0.27    118.14   
    97. A(C   7,C  20,H  34)          119.85 -0.002414    0.33    120.18   
    98. A(C   7,C  20,C  19)          122.28  0.004456   -0.60    121.68   
    99. A(C   6,C  21,H  35)          121.31  0.000655   -0.10    121.21   
   100. A(C   6,C  21,C  22)          117.72  0.000487   -0.07    117.64   
   101. A(C  22,C  21,H  35)          120.96 -0.001143    0.18    121.14   
   102. A(C  21,C  22,N  23)          132.64  0.000326   -0.11    132.53   
   103. A(C   3,C  22,N  23)          103.97 -0.004901    0.60    104.57   
   104. A(C   3,C  22,C  21)          123.39  0.004576   -0.49    122.90   
   105. A(C   1,N  23,C  22)          108.08  0.005508   -0.74    107.34   
   106. A(C  22,N  23,H  36)          126.48 -0.002362    0.31    126.79   
   107. A(C   1,N  23,H  36)          125.41 -0.003140    0.43    125.84   
   108. D(N   2,C   1,N   0,H  24)    -11.46  0.000615   -0.96    -12.42   
   109. D(N  23,C   1,N   0,H  25)     32.72  0.001009   -0.65     32.07   
   110. D(N  23,C   1,N   0,H  24)    168.80 -0.000770    0.44    169.23   
   111. D(N   2,C   1,N   0,H  25)   -147.53  0.002393   -2.05   -149.58   
   112. D(C   3,N   2,C   1,N   0)    179.99 -0.001599    1.64    181.63   
   113. D(C   3,N   2,C   1,N  23)     -0.25 -0.000318    0.34      0.10   
   114. D(C   4,C   3,N   2,C   1)   -179.98  0.000190   -0.20   -180.18   
   115. D(C  22,C   3,N   2,C   1)      0.05  0.000398   -0.42     -0.37   
   116. D(H  26,C   4,C   3,N   2)      0.23  0.000101   -0.10      0.14   
   117. D(H  26,C   4,C   3,C  22)   -179.79 -0.000120    0.14   -179.66   
   118. D(C   5,C   4,C   3,C  22)      0.12 -0.000026    0.03      0.14   
   119. D(C   5,C   4,C   3,N   2)   -179.85  0.000195   -0.21   -180.06   
   120. D(H  27,C   5,C   4,C   3)   -179.33  0.000038   -0.06   -179.39   
   121. D(C   6,C   5,C   4,C   3)      0.00  0.000171   -0.21     -0.20   
   122. D(C   6,C   5,C   4,H  26)    179.92  0.000265   -0.32    179.60   
   123. D(H  27,C   5,C   4,H  26)      0.58  0.000132   -0.17      0.41   
   124. D(C  21,C   6,C   5,H  27)    179.23 -0.000116    0.14    179.37   
   125. D(C  21,C   6,C   5,C   4)     -0.09 -0.000221    0.29      0.20   
   126. D(C   7,C   6,C   5,H  27)     -0.84 -0.000176    0.23     -0.62   
   127. D(C   7,C   6,C   5,C   4)    179.83 -0.000281    0.38    180.21   
   128. D(C  20,C   7,C   6,C  21)    -53.68 -0.002583    4.23    -49.45   
   129. D(C   8,C   7,C   6,C  21)    126.18 -0.002538    4.15    130.33   
   130. D(C  20,C   7,C   6,C   5)    126.40 -0.002518    4.14    130.54   
   131. D(C   8,C   7,C   6,C   5)    -53.75 -0.002472    4.06    -49.69   
   132. D(H  28,C   8,C   7,C  20)    179.30 -0.000135    0.16    179.46   
   133. D(H  28,C   8,C   7,C   6)     -0.56 -0.000195    0.23     -0.33   
   134. D(C   9,C   8,C   7,C  20)      0.04 -0.000116    0.15      0.19   
   135. D(C   9,C   8,C   7,C   6)   -179.82 -0.000176    0.23   -179.60   
   136. D(H  29,C   9,C   8,C   7)    179.82  0.000149   -0.18    179.63   
   137. D(C  10,C   9,C   8,H  28)   -179.27  0.000020   -0.04   -179.31   
   138. D(C  10,C   9,C   8,C   7)      0.00  0.000020   -0.03     -0.03   
   139. D(H  29,C   9,C   8,H  28)      0.54  0.000150   -0.19      0.36   
   140. D(C  19,C  10,C   9,H  29)   -179.83 -0.000111    0.13   -179.70   
   141. D(C  19,C  10,C   9,C   8)     -0.01  0.000012   -0.02     -0.03   
   142. D(N  11,C  10,C   9,H  29)      0.13 -0.000125    0.15      0.28   
   143. D(N  11,C  10,C   9,C   8)    179.95 -0.000002    0.00    179.95   
   144. D(C  12,N  11,C  10,C  19)     -0.09  0.000072   -0.09     -0.18   
   145. D(C  12,N  11,C  10,C   9)    179.95  0.000085   -0.11    179.84   
   146. D(C  17,C  12,N  11,C  10)      0.08  0.000018   -0.03      0.06   
   147. D(C  13,C  12,N  11,C  10)   -179.93  0.000012   -0.01   -179.94   
   148. D(H  30,C  13,C  12,C  17)   -179.99  0.000004   -0.00   -180.00   
   149. D(H  30,C  13,C  12,N  11)      0.02  0.000010   -0.02      0.01   
   150. D(C  14,C  13,C  12,C  17)     -0.02 -0.000003    0.00     -0.01   
   151. D(C  14,C  13,C  12,N  11)    180.00  0.000003   -0.01    179.99   
   152. D(H  31,C  14,C  13,H  30)      0.01  0.000008   -0.01     -0.00   
   153. D(H  31,C  14,C  13,C  12)   -179.97  0.000014   -0.02   -179.99   
   154. D(C  15,C  14,C  13,H  30)    179.98 -0.000011    0.01    179.99   
   155. D(C  15,C  14,C  13,C  12)     -0.00 -0.000005    0.00      0.00   
   156. D(H  32,C  15,C  14,H  31)      0.00 -0.000005    0.00      0.01   
   157. D(H  32,C  15,C  14,C  13)   -179.97  0.000014   -0.02   -179.98   
   158. D(C  16,C  15,C  14,H  31)    179.98 -0.000014    0.02    180.00   
   159. D(C  16,C  15,C  14,C  13)      0.01  0.000005   -0.01      0.01   
   160. D(H  33,C  16,C  15,H  32)      0.01  0.000005   -0.01      0.00   
   161. D(H  33,C  16,C  15,C  14)   -179.97  0.000014   -0.02   -179.99   
   162. D(C  17,C  16,C  15,H  32)    179.97 -0.000013    0.01    179.98   
   163. D(C  17,C  16,C  15,C  14)     -0.01 -0.000004    0.00     -0.01   
   164. D(C  12,C  17,C  16,H  33)    179.95 -0.000022    0.03    179.98   
   165. D(C  12,C  17,C  16,C  15)     -0.00 -0.000003    0.00     -0.00   
   166. D(N  18,C  17,C  12,C  13)   -179.97 -0.000030    0.04   -179.93   
   167. D(N  18,C  17,C  12,N  11)      0.02 -0.000036    0.05      0.06   
   168. D(C  16,C  17,C  12,C  13)      0.02  0.000005   -0.01      0.01   
   169. D(N  18,C  17,C  16,C  15)    179.99  0.000032   -0.04    179.95   
   170. D(C  16,C  17,C  12,N  11)   -179.99 -0.000001    0.00   -179.99   
   171. D(N  18,C  17,C  16,H  33)     -0.06  0.000013   -0.02     -0.08   
   172. D(C  19,N  18,C  17,C  16)    179.90 -0.000077    0.09    179.99   
   173. D(C  19,N  18,C  17,C  12)     -0.11 -0.000042    0.05     -0.06   
   174. D(C  20,C  19,N  18,C  17)   -179.92 -0.000080    0.10   -179.83   
   175. D(C  10,C  19,N  18,C  17)      0.10  0.000131   -0.16     -0.06   
   176. D(C  20,C  19,C  10,N  11)   -179.98  0.000058   -0.07   -180.05   
   177. D(C  20,C  19,C  10,C   9)     -0.02  0.000042   -0.05     -0.07   
   178. D(N  18,C  19,C  10,N  11)     -0.00 -0.000154    0.19      0.19   
   179. D(N  18,C  19,C  10,C   9)    179.96 -0.000169    0.21    180.16   
   180. D(H  34,C  20,C  19,N  18)      0.81  0.000224   -0.27      0.54   
   181. D(H  34,C  20,C  19,C  10)   -179.21  0.000016   -0.02   -179.23   
   182. D(C   7,C  20,C  19,N  18)   -179.91  0.000071   -0.08   -179.99   
   183. D(C   7,C  20,C  19,C  10)      0.06 -0.000137    0.17      0.24   
   184. D(H  34,C  20,C   7,C   8)    179.19  0.000021   -0.02    179.16   
   185. D(H  34,C  20,C   7,C   6)     -0.95  0.000081   -0.10     -1.06   
   186. D(C  19,C  20,C   7,C   8)     -0.07  0.000173   -0.22     -0.29   
   187. D(C  19,C  20,C   7,C   6)    179.79  0.000233   -0.30    179.49   
   188. D(H  35,C  21,C   6,C   7)     -0.63  0.000134   -0.18     -0.82   
   189. D(H  35,C  21,C   6,C   5)    179.29  0.000075   -0.10    179.20   
   190. D(C  22,C  21,C   6,C   7)   -179.87  0.000206   -0.27   -180.14   
   191. D(C  22,C  21,C   6,C   5)      0.06  0.000147   -0.19     -0.13   
   192. D(N  23,C  22,C  21,H  35)      0.38  0.000135   -0.16      0.22   
   193. D(N  23,C  22,C  21,C   6)    179.62  0.000077   -0.08    179.54   
   194. D(C   3,C  22,C  21,H  35)   -179.17  0.000052   -0.08   -179.25   
   195. D(C   3,C  22,C  21,C   6)      0.07 -0.000006    0.01      0.08   
   196. D(N  23,C  22,C   3,C   4)   -179.82 -0.000123    0.14   -179.68   
   197. D(N  23,C  22,C   3,N   2)      0.16 -0.000307    0.33      0.49   
   198. D(C  21,C  22,C   3,C   4)     -0.16 -0.000052    0.07     -0.09   
   199. D(C  21,C  22,C   3,N   2)    179.82 -0.000235    0.26    180.08   
   200. D(H  36,N  23,C  22,C  21)     -1.59  0.000180   -0.19     -1.77   
   201. D(H  36,N  23,C  22,C   3)    178.03  0.000280   -0.26    177.76   
   202. D(C   1,N  23,C  22,C  21)   -179.92 -0.000011   -0.03   -179.95   
   203. D(C   1,N  23,C  22,C   3)     -0.30  0.000088   -0.11     -0.41   
   204. D(H  36,N  23,C   1,N   2)   -177.99 -0.000049    0.00   -177.99   
   205. D(H  36,N  23,C   1,N   0)      1.79  0.001166   -1.20      0.59   
   206. D(C  22,N  23,C   1,N   2)      0.36  0.000154   -0.15      0.21   
   207. D(C  22,N  23,C   1,N   0)   -179.86  0.001369   -1.36   -181.21   
    ----------------------------------------------------------------------------

Geometry step timings:
Preparation and reading OPT file:      0.001 s ( 3.846 %)
Internal coordinates            :      0.000 s ( 0.000 %)
B/P matrices and projection     :      0.005 s (19.231 %)
Hessian update/contruction      :      0.004 s (15.385 %)
Making the step                 :      0.011 s (42.308 %)
Converting the step to Cartesian:      0.001 s ( 3.846 %)
Storing new data                :      0.001 s ( 3.846 %)
Checking convergence            :      0.000 s ( 0.000 %)
Final printing                  :      0.003 s (11.538 %)
Total time                      :      0.026 s

Time for energy+gradient        :    442.385 s
Time for complete geometry iter :    452.566 s

         *************************************************************
         *                GEOMETRY OPTIMIZATION CYCLE   2            *
         *************************************************************
---------------------------------
CARTESIAN COORDINATES (ANGSTROEM)
---------------------------------
  N      7.127856   -1.685101   -1.037622
  C      6.013401   -0.948526   -0.801498
  N      5.940950    0.371575   -0.754896
  C      4.621797    0.653545   -0.451448
  C      3.973464    1.885091   -0.273877
  C      2.608233    1.881177    0.031072
  C      1.872038    0.680397    0.159325
  C      0.427384    0.722574    0.478620
  C     -0.056979    1.508131    1.562465
  C     -1.404324    1.548154    1.874718
  C     -2.343646    0.807030    1.122582
  N     -3.648755    0.858637    1.443000
  C     -4.499125    0.135329    0.690730
  C     -5.882971    0.153177    0.981710
  C     -6.776333   -0.582943    0.221151
  C     -6.314132   -1.366512   -0.862313
  C     -4.964554   -1.404444   -1.171754
  C     -4.027563   -0.663967   -0.414148
  N     -2.720775   -0.716562   -0.732083
  C     -1.870974    0.006819    0.020463
  C     -0.488741   -0.009923   -0.272674
  C      2.517821   -0.559455   -0.018099
  C      3.878858   -0.542561   -0.320401
  N      4.799577   -1.550385   -0.544307
  H      7.919981   -1.149306   -1.382325
  H      7.035861   -2.585227   -1.500135
  H      4.526986    2.820937   -0.376069
  H      2.101746    2.841116    0.159198
  H      0.641519    2.084746    2.172740
  H     -1.755080    2.152299    2.713808
  H     -6.239207    0.758408    1.818100
  H     -7.841108   -0.554831    0.462913
  H     -7.020777   -1.945877   -1.460678
  H     -4.607820   -2.009144   -2.008285
  H     -0.148996   -0.611026   -1.118524
  H      1.974877   -1.500353    0.088359
  H      4.629514   -2.550101   -0.499716

----------------------------
CARTESIAN COORDINATES (A.U.)
----------------------------
  NO LB      ZA    FRAG     MASS         X           Y           Z
   0 N     7.0000    0    14.007   13.469695   -3.184380   -1.960821
   1 C     6.0000    0    12.011   11.363680   -1.792454   -1.514611
   2 N     7.0000    0    14.007   11.226769    0.702175   -1.426547
   3 C     6.0000    0    12.011    8.733931    1.235022   -0.853114
   4 C     6.0000    0    12.011    7.508759    3.562306   -0.517553
   5 C     6.0000    0    12.011    4.928845    3.554909    0.058717
   6 C     6.0000    0    12.011    3.537639    1.285764    0.301081
   7 C     6.0000    0    12.011    0.807639    1.365467    0.904461
   8 C     6.0000    0    12.011   -0.107674    2.849955    2.952631
   9 C     6.0000    0    12.011   -2.653788    2.925588    3.542704
  10 C     6.0000    0    12.011   -4.428849    1.525065    2.121372
  11 N     7.0000    0    14.007   -6.895148    1.622589    2.726875
  12 C     6.0000    0    12.011   -8.502115    0.255735    1.305290
  13 C     6.0000    0    12.011  -11.117205    0.289463    1.855164
  14 C     6.0000    0    12.011  -12.805413   -1.101602    0.417915
  15 C     6.0000    0    12.011  -11.931980   -2.582334   -1.629536
  16 C     6.0000    0    12.011   -9.381648   -2.654015   -2.214293
  17 C     6.0000    0    12.011   -7.610991   -1.254716   -0.782626
  18 N     7.0000    0    14.007   -5.141520   -1.354106   -1.383437
  19 C     6.0000    0    12.011   -3.535629    0.012886    0.038670
  20 C     6.0000    0    12.011   -0.923588   -0.018751   -0.515279
  21 C     6.0000    0    12.011    4.757991   -1.057216   -0.034203
  22 C     6.0000    0    12.011    7.329980   -1.025292   -0.605470
  23 N     7.0000    0    14.007    9.069885   -2.929803   -1.028591
  24 H     1.0000    0     1.008   14.966596   -2.171873   -2.612216
  25 H     1.0000    0     1.008   13.295850   -4.885371   -2.834843
  26 H     1.0000    0     1.008    8.554764    5.330798   -0.710668
  27 H     1.0000    0     1.008    3.971725    5.368931    0.300840
  28 H     1.0000    0     1.008    1.212295    3.939599    4.105884
  29 H     1.0000    0     1.008   -3.316621    4.067255    5.128354
  30 H     1.0000    0     1.008  -11.790393    1.433183    3.435710
  31 H     1.0000    0     1.008  -14.817546   -1.048479    0.874779
  32 H     1.0000    0     1.008  -13.267346   -3.677174   -2.760282
  33 H     1.0000    0     1.008   -8.707519   -3.796732   -3.795110
  34 H     1.0000    0     1.008   -0.281562   -1.154672   -2.113705
  35 H     1.0000    0     1.008    3.731977   -2.835256    0.166975
  36 H     1.0000    0     1.008    8.748513   -4.818992   -0.944326

--------------------------------
INTERNAL COORDINATES (ANGSTROEM)
--------------------------------
 N      0   0   0     0.000000000000     0.00000000     0.00000000
 C      1   0   0     1.356579773979     0.00000000     0.00000000
 N      2   1   0     1.322908452489   126.36561280     0.00000000
 C      3   2   1     1.382661577820   105.27674715   181.62043231
 C      4   3   2     1.403058449936   130.36393939   179.82464274
 C      5   4   3     1.398880279390   118.43123205   179.93618743
 C      6   5   4     1.414321260848   122.01572255   359.79692716
 C      7   6   5     1.480118956444   120.22685106   180.20948540
 C      8   7   6     1.423526119541   120.80211101   310.31351432
 C      9   8   7     1.383634401129   121.27321010   180.40562529
 C     10   9   8     1.413258642089   120.79338835   359.97277534
 N     11  10   9     1.344857203771   119.87322825   179.94658041
 C     12  11  10     1.346185368561   117.33937069   179.84542215
 C     13  12  11     1.414219773612   119.75963653   180.05597270
 C     14  13  12     1.385069444060   120.76059794   179.98876805
 C     15  14  13     1.414746092750   120.27610041     0.00000000
 C     16  15  14     1.385117887411   120.30335503     0.00000000
 C     17  16  15     1.414293192961   120.76416596     0.00000000
 N     18  17  16     1.345935826630   119.75211789   179.94534688
 C     19  18  17     1.346019586084   117.38140932   179.99481892
 C      8   7   6     1.392939371049   120.70358168   130.53754485
 C      7   6   5     1.409165337734   119.80451614     0.19701949
 C     22   7   6     1.394308185029   117.64396744   359.87219708
 N      2   1   3     1.379039591939   121.23772383   181.64519964
 H      1   2   3     1.016543372700   114.39302062   347.58356306
 H      1   2   3     1.016172446783   119.06548678   210.42098221
 H      5   4   3     1.092079208553   120.40664359     0.13578691
 H      6   5   4     1.092898761899   118.38443658   180.61262955
 H      9   8   7     1.092162849914   119.94556197   359.67547304
 H     10   9   8     1.091829663000   120.15038220   179.63407814
 H     14  13  12     1.092133347928   118.93023246     0.00000000
 H     15  14  13     1.092238504300   119.57444196   180.01363174
 H     16  15  14     1.092268854159   120.12961065   180.01671235
 H     17  16  15     1.092110881655   120.30148493   180.01448498
 H     21   8   7     1.091886027244   120.17735888   358.94437494
 H     22   7   6     1.091517494707   121.21175375   179.19486510
 H     24   2   1     1.015057326245   125.83818653     0.58229335

---------------------------
INTERNAL COORDINATES (A.U.)
---------------------------
 N      0   0   0     0.000000000000     0.00000000     0.00000000
 C      1   0   0     2.563564251637     0.00000000     0.00000000
 N      2   1   0     2.499934675453   126.36561280     0.00000000
 C      3   2   1     2.612851717975   105.27674715   181.62043231
 C      4   3   2     2.651396220263   130.36393939   179.82464274
 C      5   4   3     2.643500622189   118.43123205   179.93618743
 C      6   5   4     2.672679848385   122.01572255   359.79692716
 C      7   6   5     2.797019473304   120.22685106   180.20948540
 C      8   7   6     2.690074510416   120.80211101   310.31351432
 C      9   8   7     2.614690087606   121.27321010   180.40562529
 C     10   9   8     2.670671789946   120.79338835   359.97277534
 N     11  10   9     2.541411804358   119.87322825   179.94658041
 C     12  11  10     2.543921672073   117.33937069   179.84542215
 C     13  12  11     2.672488065302   119.75963653   180.05597270
 C     14  13  12     2.617401925736   120.76059794   179.98876805
 C     15  14  13     2.673482664334   120.27610041     0.00000000
 C     16  15  14     2.617493470403   120.30335503     0.00000000
 C     17  16  15     2.672626807766   120.76416596     0.00000000
 N     18  17  16     2.543450106164   119.75211789   179.94534688
 C     19  18  17     2.543608388592   117.38140932   179.99481892
 C      8   7   6     2.632273932440   120.70358168   130.53754485
 C      7   6   5     2.662936565732   119.80451614     0.19701949
 C     22   7   6     2.634860615991   117.64396744   359.87219708
 N      2   1   3     2.606007156599   121.23772383   181.64519964
 H      1   2   3     1.920988577656   114.39302062   347.58356306
 H      1   2   3     1.920287629257   119.06548678   210.42098221
 H      5   4   3     2.063730620715   120.40664359     0.13578691
 H      6   5   4     2.065279352090   118.38443658   180.61262955
 H      9   8   7     2.063888679980   119.94556197   359.67547304
 H     10   9   8     2.063259047962   120.15038220   179.63407814
 H     14  13  12     2.063832929306   118.93023246     0.00000000
 H     15  14  13     2.064031646051   119.57444196   180.01363174
 H     16  15  14     2.064088998973   120.12961065   180.01671235
 H     17  16  15     2.063790474203   120.30148493   180.01448498
 H     21   8   7     2.063365560947   120.17735888   358.94437494
 H     22   7   6     2.062669135379   121.21175375   179.19486510
 H     24   2   1     1.918180356833   125.83818653     0.58229335

------------------------------------------------------------------------------
                   ___                                                        
                  /   \      - P O W E R E D   B Y -                         
                 /     \                                                     
                 |  |  |   _    _      __       _____    __    __             
                 |  |  |  | |  | |    /  \     |  _  \  |  |  /  |          
                  \  \/   | |  | |   /    \    | | | |  |  | /  /          
                 / \  \   | |__| |  /  /\  \   | |_| |  |  |/  /          
                |  |  |   |  __  | /  /__\  \  |    /   |      \           
                |  |  |   | |  | | |   __   |  |    \   |  |\   \          
                \     /   | |  | | |  |  |  |  | |\  \  |  | \   \       
                 \___/    |_|  |_| |__|  |__|  |_| \__\ |__|  \__/        
                                                                              
                      - O R C A' S   B I G   F R I E N D -                    
                                      &                                       
                       - I N T E G R A L  F E E D E R -                       
                                                                              
 v1 FN, 2020, v2 2021, v3 2022-2024                                           
------------------------------------------------------------------------------


----------------------
SHARK INTEGRAL PACKAGE
----------------------

Number of atoms                             ...     37
Number of basis functions                   ...    401
Number of shells                            ...    183
Maximum angular momentum                    ...      2
Integral batch strategy                     ... SHARK/LIBINT Hybrid
RI-J (if used) integral strategy            ... SPLIT-RIJ (Revised 2003 algorithm where possible)
Printlevel                                  ...      1
Contraction scheme used                     ... SEGMENTED contraction
Prescreening option                         ... SCHWARTZ
   Thresh                                   ... 2.500e-11
   Tcut                                     ... 2.500e-12
   Tpresel                                  ... 2.500e-12 
Coulomb Range Separation                    ... NOT USED
Exchange Range Separation                   ... NOT USED
Multipole approximations                    ... NOT USED
Finite Nucleus Model                        ... NOT USED
CABS basis                                  ... NOT available
Auxiliary Coulomb fitting basis             ... AVAILABLE
   # of basis functions in Aux-J            ...   1319
   # of shells in Aux-J                     ...    425
   Maximum angular momentum in Aux-J        ...      4
Auxiliary J/K fitting basis                 ... NOT available
Auxiliary Correlation fitting basis         ... NOT available
Auxiliary 'external' fitting basis          ... NOT available

Checking pre-screening integrals            ... done (  0.0 sec) Dimension = 183
   => SHARK Basis and OBASIS are compatible. Storing Pre-screening
Shell pair information
Shell pair cut-off parameter TPreSel        ...   2.5e-12
Total number of shell pairs                 ...     16836
Shell pairs after pre-screening             ...     10528
Total number of primitive shell pairs       ...     62832
Primitive shell pairs kept                  ...     25506
          la=0 lb=0:   3076 shell pairs
          la=1 lb=0:   3845 shell pairs
          la=1 lb=1:   1257 shell pairs
          la=2 lb=0:   1329 shell pairs
          la=2 lb=1:    864 shell pairs
          la=2 lb=2:    157 shell pairs

Checking whether 4 symmetric matrices of dimension 401 fit in memory
:Max Core in MB      =   2000.00
 MB in use           =     15.19
 MB left             =   1984.81
 MB needed           =      2.46
 Data fit in memory  = YES
Calculating RI/J V-Matrix + Cholesky decomp.... done (  0.1 sec)
Calculating Nuclear repulsion               ... done (  0.0 sec) ENN=   1740.954421802995 Eh

Diagonalization of the overlap matrix:
Smallest eigenvalue                        ... 2.056e-04
Time for diagonalization                   ...    0.015 sec
Threshold for overlap eigenvalues          ... 1.000e-07
Number of eigenvalues below threshold      ... 0
Time for construction of square roots      ...    0.011 sec
Total time needed                          ...    0.026 sec

-------------------
DFT GRID GENERATION
-------------------

General Integration Accuracy     IntAcc      ... 4.388
Radial Grid Type                 RadialGrid  ... OptM3 with GC (2021)
Angular Grid (max. ang.)         AngularGrid ... 4 (Lebedev-302)
Angular grid pruning method      GridPruning ... 4 (adaptive)
Weight generation scheme         WeightScheme... mBecke (2022)
Basis function cutoff            BFCut       ... 1.0000e-11
Integration weight cutoff        WCut        ... 1.0000e-14
Partially contracted basis set               ... off
Rotationally invariant grid construction     ... off
Angular grids for H and He will be reduced by one unit

Total number of grid points                  ...   185234
Total number of batches                      ...     2913
Average number of points per batch           ...       63
Average number of grid points per atom       ...     5006

--------------------
COSX GRID GENERATION
--------------------

GRIDX 1
-------
General Integration Accuracy     IntAcc      ... 3.816
Radial Grid Type                 RadialGrid  ... OptM3 with GC (2021)
Angular Grid (max. ang.)         AngularGrid ... 1 (Lebedev-50)
Angular grid pruning method      GridPruning ... 4 (adaptive)
Weight generation scheme         WeightScheme... mBecke (2022)
Basis function cutoff            BFCut       ... 1.0000e-11
Integration weight cutoff        WCut        ... 1.0000e-14
Partially contracted basis set               ... on
Rotationally invariant grid construction     ... off
Angular grids for H and He will be reduced by one unit

Total number of grid points                  ...    23524
Total number of batches                      ...      201
Average number of points per batch           ...      117
Average number of grid points per atom       ...      636
UseSFitting                                  ... on

GRIDX 2
-------
General Integration Accuracy     IntAcc      ... 4.020
Radial Grid Type                 RadialGrid  ... OptM3 with GC (2021)
Angular Grid (max. ang.)         AngularGrid ... 2 (Lebedev-110)
Angular grid pruning method      GridPruning ... 4 (adaptive)
Weight generation scheme         WeightScheme... mBecke (2022)
Basis function cutoff            BFCut       ... 1.0000e-11
Integration weight cutoff        WCut        ... 1.0000e-14
Partially contracted basis set               ... on
Rotationally invariant grid construction     ... off
Angular grids for H and He will be reduced by one unit

Total number of grid points                  ...    52180
Total number of batches                      ...      429
Average number of points per batch           ...      121
Average number of grid points per atom       ...     1410
UseSFitting                                  ... on

GRIDX 3
-------
General Integration Accuracy     IntAcc      ... 4.338
Radial Grid Type                 RadialGrid  ... OptM3 with GC (2021)
Angular Grid (max. ang.)         AngularGrid ... 3 (Lebedev-194)
Angular grid pruning method      GridPruning ... 4 (adaptive)
Weight generation scheme         WeightScheme... mBecke (2022)
Basis function cutoff            BFCut       ... 1.0000e-11
Integration weight cutoff        WCut        ... 1.0000e-14
Partially contracted basis set               ... on
Rotationally invariant grid construction     ... off
Angular grids for H and He will be reduced by one unit

Total number of grid points                  ...   114459
Total number of batches                      ...      915
Average number of points per batch           ...      125
Average number of grid points per atom       ...     3093
UseSFitting                                  ... on
Grids setup in   4.8 sec
Initializing property integral containers    ... done (  0.0 sec)

SHARK setup successfully completed in   5.2 seconds

Maximum memory used throughout the entire STARTUP-calculation: 77.1 MB
Occupation numbers will be reassigned to an Aufbau configuration
             **** ENERGY FILE WAS UPDATED (C:\Users\jabreumiranda\Radioprotection_Pipeline_Project\06_Quantum_DFT_ORCA\CHEMBL1683055_neutral_opt.en.tmp) ****
Finished Guess after   0.2 sec
Maximum memory used throughout the entire GUESS-calculation: 28.5 MB
--------------------
CPCM SOLVATION MODEL
--------------------
CPCM parameters:
  Epsilon                                         ...      80.1510
  Refrac                                          ...       1.3328
  Rsolv                                           ...       1.3000
  Surface type                                    ... GAUSSIAN VDW
  Discretization scheme                           ... Constant charge density
    Threshold for H atoms                         ...       5.0000 (charges/Ang^2)
    Threshold for non-H atoms                     ...       5.0000 (charges/Ang^2)
  Epsilon function type                           ...         CPCM
Solvent:                                          ... WATER
Radii:
  Scheme                                          ... Element-dependent radii
  Radius for N  used is    3.5149 Bohr (=   1.8600 Ang.)
  Radius for C  used is    3.8550 Bohr (=   2.0400 Ang.)
  Radius for H  used is    2.4944 Bohr (=   1.3200 Ang.)
Calculating surface                               ...        done! (  0.0s)
Cavity surface points                             ...         3393
Cavity Volume                                     ...    2402.9075
Cavity Surface-area                               ...    1216.5748
Calculating surface distance matrix               ...        done! (  0.1s)
Performing Cholesky decomposition & store         ...        done! (  0.4s)
Overall time for CPCM initialization              ...                 0.6s

----------------------------------------D-I-I-S--------------------------------------------
Iteration    Energy (Eh)           Delta-E    RMSDP     MaxDP     DIISErr   Damp  Time(sec)
-------------------------------------------------------------------------------------------
               ***  Starting incremental Fock matrix formation  ***
    1    -1004.3404021132901107     0.00e+00  5.01e-04  2.07e-02  2.07e-02  0.700  26.1
Warning: op=0 Small HOMO/LUMO gap (   0.100) - skipping pre-diagonalization
         Will do a full diagonalization
    2    -1004.3432969523473730    -2.89e-03  4.19e-04  1.81e-02  1.66e-02  0.700  12.0
                               ***Turning on AO-DIIS***
    3    -1004.3455780198241882    -2.28e-03  2.99e-04  1.28e-02  1.23e-02  0.700  11.8
    4    -1004.3472265137920658    -1.65e-03  7.18e-04  3.04e-02  8.95e-03  0.000  11.8
                              *** Initializing SOSCF ***
---------------------------------------S-O-S-C-F--------------------------------------
Iteration    Energy (Eh)           Delta-E    RMSDP     MaxDP     MaxGrad    Time(sec)
--------------------------------------------------------------------------------------
    5    -1004.3513722617249186    -4.15e-03  2.73e-05  7.46e-04  4.92e-04    12.4
               *** Restarting incremental Fock matrix formation ***
    6    -1004.3513807716503834    -8.51e-06  2.23e-05  6.10e-04  1.88e-04    25.6
    7    -1004.3513832962157721    -2.52e-06  1.31e-05  3.55e-04  1.97e-04    17.2
    8    -1004.3513851833695298    -1.89e-06  5.65e-06  1.85e-04  6.74e-05    15.9
    9    -1004.3513853217559699    -1.38e-07  2.90e-06  1.29e-04  3.10e-05    14.5
   10    -1004.3513854030411494    -8.13e-08  1.73e-06  5.28e-05  1.60e-05    13.0
   11    -1004.3513854326738510    -2.96e-08  7.12e-07  3.42e-05  8.67e-06    12.5
   12    -1004.3513854175243978     1.51e-08  4.28e-07  1.87e-05  6.11e-06     9.7
   13    -1004.3513854090151654     8.51e-09  2.39e-07  5.48e-06  1.48e-06     9.4
                 **** Energy Check signals convergence ****

               *****************************************************
               *                     SUCCESS                       *
               *           SCF CONVERGED AFTER  13 CYCLES          *
               *****************************************************

Recomputing exchange energy using gridx3       ... done (   39.420 sec)
Old exchange energy                            :    -27.203829262 Eh
New exchange energy                            :    -27.203840663 Eh
Exchange energy change after final integration :     -0.000011401 Eh
Total energy after final integration           :  -1004.351396835 Eh
             **** ENERGY FILE WAS UPDATED (C:\Users\jabreumiranda\Radioprotection_Pipeline_Project\06_Quantum_DFT_ORCA\CHEMBL1683055_neutral_opt.en.tmp) ****

----------------
TOTAL SCF ENERGY
----------------

Total Energy       :      -1004.35139683536249 Eh          -27329.79093 eV

Components:
Nuclear Repulsion  :       1740.95442180299460 Eh           47373.77825 eV
Electronic Energy  :      -2745.27153455137704 Eh          -74702.63626 eV
One Electron Energy:      -4819.00624665840496 Eh         -131131.82658 eV
Two Electron Energy:       2073.73471210702792 Eh           56429.19032 eV
CPCM Dielectric    :         -0.03427268599182 Eh              -0.93261 eV

Virial components:
Potential Energy   :      -1998.64274996883751 Eh          -54385.83415 eV
Kinetic Energy     :        994.29135313347501 Eh           27056.04322 eV
Virial Ratio       :          2.01011780266436

DFT components:
N(Alpha)           :       81.000001566863 electrons
N(Beta)            :       81.000001566863 electrons
N(Total)           :      162.000003133727 electrons
E(X)               :     -108.128455042069 Eh       
E(C)               :       -6.530217735756 Eh       
E(XC)              :     -114.658672777825 Eh       

CPCM Solvation Model Properties:
Surface-charge          :         -0.02744107587750
Corrected charge        :         -0.00000000000000
Outlying charge corr.   :          0.00003792518399 Eh               0.00103 eV
Free-energy (cav+disp)  :  This term is not implemented in the current solvation scheme

---------------
SCF CONVERGENCE
---------------

  Last Energy change         ...   -8.5092e-09  Tolerance :   1.0000e-08
  Last MAX-Density change    ...    5.4788e-06  Tolerance :   1.0000e-07
  Last RMS-Density change    ...    2.3907e-07  Tolerance :   5.0000e-09
  Last DIIS Error            ...    4.9236e-04  Tolerance :   5.0000e-07
  Last Orbital Gradient      ...    1.4839e-06  Tolerance :   1.0000e-05
  Last Orbital Rotation      ...    5.6119e-06  Tolerance :   1.0000e-05


Total SCF time: 0 days 0 hours 4 min 0 sec 
Finished LeanSCF after 240.5 sec

Maximum memory used throughout the entire LEANSCF-calculation: 111.3 MB

------------------------------------------------------------------------------
                         ORCA PROPERTY INTEGRAL CALCULATIONS
------------------------------------------------------------------------------

GBWName                                   ... C:\Users\jabreumiranda\Radioprotection_Pipeline_Project\06_Quantum_DFT_ORCA\CHEMBL1683055_neutral_opt.gbw
Number of atoms                           ...     37
Number of basis functions                 ...    401
Max core memory                           ...   2000 MB

Dipole integrals                          ... YES
Quadrupole integrals                      ...  NO
Linear momentum integrals                 ...  NO
Angular momentum integrals                ...  NO
Higher moments length integrals           ...  NO
Higher moments velocity integrals         ...  NO
Kinetic energy integrals                  ...  NO
GIAO right hand sides                     ...  NO
GIAO dipole derivative integrals          ...  NO
SOC integrals                             ...  NO
EPR diamagnetic integrals (GIAO)          ...  NO
EPR gauge integrals                       ...  NO
Field gradient integrals                  ...  NO (   0 nuclei)
Spin-dipole/Fermi contact integrals       ...  NO (   0 nuclei)
Contact density integrals                 ...  NO (   0 nuclei)
Nucleus-orbit integrals                   ...  NO (   0 nuclei)
Geometric perturbations                   ...  NO (  37 nuclei)

Choice of electric origin   ... Center of mass
Position of electric origin ... (  0.0580,  0.0394,  0.0425) 
Choice of magnetic origin   ... GIAO
Position of magnetic origin ... (  0.0000,  0.0000,  0.0000) 

Calculating integrals                     ... Electric Dipole (Length)     done (  0.0 sec)

Property integrals calculated in   0.0 sec

Maximum memory used throughout the entire PROPINT-calculation: 27.0 MB


-------------------------------------------------------------------------------
                          DFT DISPERSION CORRECTION                            
                                                                               
                              DFTD3 V3.1  Rev 1                                
                          USING Becke-Johnson damping                          
-------------------------------------------------------------------------------
-------------------------   ----------------
Dispersion correction           -0.087987617
-------------------------   ----------------


-------------------------   --------------------
FINAL SINGLE POINT ENERGY     -1004.439384452269
-------------------------   --------------------

------------------------------------------------------------------------------
                         ORCA SCF GRADIENT CALCULATION
------------------------------------------------------------------------------

Nuc. rep. gradient        (SHARK) ... done (  0.0 sec)
HCore & Overlap gradient  (SHARK) ... done (  1.3 sec)
Split-RIJ-J gradient      (SHARK) ... done (  6.6 sec)
COSX-gradient                     ... done ( 96.2 sec)
XC gradient                       ... done ( 15.9 sec)
CPCM gradient                     ... done (  5.9 sec)
Dispersion correction             ... done (  0.1 sec)

-------------------
DISPERSION GRADIENT
-------------------

   1   N   :    0.000464875   -0.000208104   -0.000107111
   2   C   :   -0.002693721    0.001888014    0.000639567
   3   N   :   -0.000012082   -0.000129759    0.000012578
   4   C   :    0.001304448   -0.002380281   -0.000345814
   5   C   :    0.000169783    0.000313291   -0.000049001
   6   C   :    0.000558628    0.000218153   -0.000164425
   7   C   :    0.000425334   -0.000114026   -0.000109648
   8   C   :   -0.000196252    0.000032526    0.000076929
   9   C   :   -0.000274834    0.000176681    0.000348076
  10   C   :   -0.000037086    0.000269015    0.000378784
  11   C   :   -0.000374329   -0.000147992   -0.000115650
  12   N   :   -0.000124685    0.000196388    0.000273455
  13   C   :    0.000362154    0.000075292    0.000024782
  14   C   :   -0.000391843    0.000102053    0.000205372
  15   C   :   -0.000351493   -0.000016411    0.000047231
  16   C   :   -0.000260022   -0.000173092   -0.000169350
  17   C   :   -0.000171292   -0.000275368   -0.000316490
  18   C   :    0.000314529    0.000140900    0.000117340
  19   N   :    0.000099907   -0.000185863   -0.000264101
  20   C   :   -0.000580075   -0.000057045    0.000004588
  21   C   :   -0.000181512   -0.000076229   -0.000141866
  22   C   :    0.000176678   -0.000159679    0.000007766
  23   C   :    0.001812058    0.000232467   -0.000367186
  24   N   :    0.000146045    0.000462954   -0.000004625
  25   H   :    0.000203477   -0.000051427   -0.000054653
  26   H   :    0.000177702   -0.000152403   -0.000076643
  27   H   :    0.000109039    0.000305099   -0.000018775
  28   H   :    0.000100738    0.000372065   -0.000055882
  29   H   :   -0.000016735    0.000207305    0.000334301
  30   H   :   -0.000016169    0.000199892    0.000260345
  31   H   :   -0.000200500    0.000133334    0.000207991
  32   H   :   -0.000276652    0.000004978    0.000059907
  33   H   :   -0.000186045   -0.000148926   -0.000152912
  34   H   :   -0.000007163   -0.000197593   -0.000249516
  35   H   :   -0.000070026   -0.000171106   -0.000279479
  36   H   :    0.000001360   -0.000346926    0.000038664
  37   H   :   -0.000004240   -0.000338176    0.000005450

Difference to translation invariance:
           :    0.0000000000   -0.0000000000   -0.0000000000

Difference to rotation invariance:
           :   -0.0000000000    0.0000000000   -0.0000000000

Norm of the Dispersion gradient    ...    0.0052031143
RMS gradient                       ...    0.0004938578
MAX gradient                       ...    0.0026937210

------------------
CARTESIAN GRADIENT
------------------

   1   N   :   -0.009309041   -0.001772733    0.001583733
   2   C   :    0.009012362    0.002292251    0.001301337
   3   N   :   -0.004675293   -0.001166404    0.000262558
   4   C   :   -0.002269433   -0.008115923   -0.000104345
   5   C   :    0.001715640    0.001703590   -0.000273798
   6   C   :   -0.004158581   -0.002339198   -0.001387676
   7   C   :   -0.001527541    0.000696186   -0.000939369
   8   C   :    0.004616948    0.008864145    0.010956250
   9   C   :    0.013669983   -0.006466048   -0.007420242
  10   C   :   -0.018524082   -0.006831332   -0.004778647
  11   C   :    0.014535435    0.000688979   -0.001842937
  12   N   :   -0.002626464    0.002656129    0.003888269
  13   C   :   -0.008523672   -0.005546655   -0.005394944
  14   C   :    0.018349871    0.003741425    0.001166124
  15   C   :   -0.003949838   -0.008620797   -0.010132053
  16   C   :   -0.011497605    0.003753575    0.006987473
  17   C   :    0.016689528    0.007172103    0.005919297
  18   C   :   -0.012365471   -0.000834150    0.001271959
  19   N   :    0.001958466   -0.002774260   -0.003561101
  20   C   :    0.006897725    0.006024346    0.005536026
  21   C   :   -0.015651490   -0.001826805   -0.002323115
  22   C   :   -0.002234442   -0.000321047    0.002739759
  23   C   :    0.006528972    0.005079316   -0.001657599
  24   N   :   -0.001556366    0.003607364    0.000317429
  25   H   :    0.000443392   -0.000285752   -0.000618992
  26   H   :    0.003505614    0.000524930   -0.001895673
  27   H   :    0.000175183   -0.000391287    0.000080298
  28   H   :    0.001485345    0.000820491   -0.000446698
  29   H   :   -0.001448139    0.000440411    0.000975915
  30   H   :    0.001809299    0.000628312    0.000154878
  31   H   :   -0.001923358   -0.000622180   -0.000421695
  32   H   :    0.000359548    0.000360847    0.000374579
  33   H   :    0.000597593   -0.000031611   -0.000169668
  34   H   :   -0.001957633   -0.000579228   -0.000363533
  35   H   :    0.000947355    0.000141029    0.000143385
  36   H   :    0.000618980   -0.000175877   -0.000288066
  37   H   :    0.000281209   -0.000494142    0.000360880

Difference to translation invariance:
           :    0.0000000001    0.0000000000    0.0000000000

Difference to rotation invariance:
           :   -0.0001149921   -0.0001671420    0.0008704820

Norm of the Cartesian gradient     ...    0.0582424030
RMS gradient                       ...    0.0055281242
MAX gradient                       ...    0.0185240817

-------
TIMINGS
-------

Total SCF gradient time     ....      125.868 sec

Densities                   ....       0.005 sec  (  0.0%)
One electron gradient       ....       1.273 sec  (  1.0%)
RI-J Coulomb gradient       ....       6.593 sec  (  5.2%)
COSX gradient               ....      96.173 sec  ( 76.4%)
XC gradient                 ....      15.856 sec  ( 12.6%)
CPCM gradient               ....       5.891 sec  (  4.7%)
   A-Matrix (El+Nuc)        ....       0.599 sec  (  0.5%)
   Potential                ....       5.292 sec  (  4.2%)

Maximum memory used throughout the entire SCFGRAD-calculation: 59.4 MB
------------------------------------------------------------------------------
                         ORCA GEOMETRY RELAXATION STEP
------------------------------------------------------------------------------

Reading the OPT-File                    .... done
Getting information on internals        .... done
Copying old internal coords+grads       .... done
Making the new internal coordinates     .... (2022 redundants) done
Validating the new internal coordinates .... (2022 redundants) done
Calculating the B-matrix                .... done
Calculating the G,G- and P matrices     .... done
Transforming gradient to internals      .... done
Projecting the internal gradient        .... done
Number of atoms                         ....  37
Number of internal coordinates          .... 207
Current Energy                          .... -1004.439384452 Eh
Current gradient norm                   ....     0.058242403 Eh/bohr
Maximum allowed component of the step   ....  0.300
Current trust radius                    ....  0.300
Updating the Hessian (BFGS)             .... done
Forming the augmented Hessian           .... done
Diagonalizing the augmented Hessian     .... done
Last element of RFO vector              ....  0.957157482
Lowest eigenvalues of augmented Hessian:
 -0.004626529  0.015501942  0.020648123  0.021529212  0.023508882
Length of the computed step             ....  0.302528981
Warning: the length of the step is outside the trust region - taking restricted step instead
The input lambda is                     ....     0.013048
   iter:   5  x=    0.006741  g=  448.635081 f(x)=     1.044055
   iter:  10  x=   -0.004800  g=    8.805197 f(x)=     0.001781
The output lambda is                    ....    -0.004803 (13 iterations)
The final length of the internal step   ....  0.300000000
Converting the step to Cartesian space:
 Initial RMS(Int)=    0.0208514414
Transforming coordinates:
 Iter   0:  RMS(Cart)=    0.1176474434 RMS(Int)=    1.3100733853
 Iter   5:  RMS(Cart)=    0.0000002569 RMS(Int)=    0.0000000803
done
Storing new coordinates                 .... done
The predicted energy change is          ....    -0.002521391
Previously predicted energy change      ....    -0.010850438
Actually observed energy change         ....    -0.013252819
Ratio of predicted to observed change   ....     1.221408699
New trust radius                        ....     0.450000000

                                .--------------------.
          ----------------------|Geometry convergence|-------------------------
          Item                value                   Tolerance       Converged
          ---------------------------------------------------------------------
          Energy change      -0.0132528191            0.0000050000      NO
          RMS gradient        0.0024232093            0.0001000000      NO
          MAX gradient        0.0107834167            0.0003000000      NO
          RMS step            0.0208514414            0.0020000000      NO
          MAX step            0.1417720159            0.0040000000      NO
          -------------------------------------------------------------------------
          ........................................................
          Max(Bonds)      0.0142      Max(Angles)    0.91
          Max(Dihed)        8.12      Max(Improp)    0.00
          ---------------------------------------------------------------------

The optimization has not yet converged - more geometry cycles are needed


    ---------------------------------------------------------------------------
                         Redundant Internal Coordinates
                            (Angstroem and degrees)

        Definition                    Value    dE/dq     Step     New-Value
    ----------------------------------------------------------------------------
     1. B(C   1,N   0)                1.3566 -0.003405  0.0046    1.3612   
     2. B(N   2,C   1)                1.3229 -0.002059  0.0027    1.3256   
     3. B(C   3,N   2)                1.3827 -0.001802  0.0028    1.3855   
     4. B(C   4,C   3)                1.4031  0.000316 -0.0001    1.4029   
     5. B(C   5,C   4)                1.3989  0.001434 -0.0021    1.3967   
     6. B(C   6,C   5)                1.4143 -0.001162  0.0016    1.4159   
     7. B(C   7,C   6)                1.4801 -0.001698  0.0031    1.4832   
     8. B(C   8,C   7)                1.4235 -0.009645  0.0128    1.4363   
     9. B(C   9,C   8)                1.3836  0.008511 -0.0113    1.3723   
    10. B(C  10,C   9)                1.4133 -0.010783  0.0142    1.4275   
    11. B(N  11,C  10)                1.3449  0.004082 -0.0046    1.3402   
    12. B(C  12,N  11)                1.3462  0.002918 -0.0033    1.3429   
    13. B(C  13,C  12)                1.4142 -0.009759  0.0130    1.4272   
    14. B(C  14,C  13)                1.3851  0.007248 -0.0095    1.3755   
    15. B(C  15,C  14)                1.4147 -0.009643  0.0124    1.4272   
    16. B(C  16,C  15)                1.3851  0.007332 -0.0096    1.3755   
    17. B(C  17,C  16)                1.4143 -0.009958  0.0133    1.4276   
    18. B(C  17,C  12)                1.4429 -0.006391  0.0101    1.4530   
    19. B(N  18,C  17)                1.3459  0.003368 -0.0038    1.3421   
    20. B(C  19,N  18)                1.3460  0.003050 -0.0034    1.3426   
    21. B(C  19,C  10)                1.4417 -0.006932  0.0108    1.4525   
    22. B(C  20,C  19)                1.4131 -0.008681  0.0117    1.4248   
    23. B(C  20,C   7)                1.3929  0.007013 -0.0096    1.3834   
    24. B(C  21,C   6)                1.4092  0.000339 -0.0006    1.4086   
    25. B(C  22,C  21)                1.3943  0.002469 -0.0032    1.3911   
    26. B(C  22,C   3)                1.4141 -0.007253  0.0103    1.4244   
    27. B(N  23,C  22)                1.3833 -0.001820  0.0029    1.3862   
    28. B(N  23,C   1)                1.3790 -0.000212  0.0006    1.3797   
    29. B(H  24,N   0)                1.0165  0.000403 -0.0008    1.0158   
    30. B(H  25,N   0)                1.0162  0.000084 -0.0000    1.0161   
    31. B(H  26,C   4)                1.0921 -0.000255  0.0008    1.0929   
    32. B(H  27,C   5)                1.0929 -0.000022  0.0002    1.0931   
    33. B(H  28,C   8)                1.0922 -0.000148  0.0004    1.0926   
    34. B(H  29,C   9)                1.0918 -0.000114  0.0004    1.0922   
    35. B(H  30,C  13)                1.0921 -0.000038  0.0003    1.0924   
    36. B(H  31,C  14)                1.0922 -0.000258  0.0007    1.0930   
    37. B(H  32,C  15)                1.0923 -0.000278  0.0008    1.0930   
    38. B(H  33,C  16)                1.0921 -0.000042  0.0003    1.0924   
    39. B(H  34,C  20)                1.0919  0.000106 -0.0001    1.0918   
    40. B(H  35,C  21)                1.0915 -0.000183  0.0006    1.0921   
    41. B(H  36,N  23)                1.0151  0.000458 -0.0004    1.0146   
    42. A(C   1,N   0,H  24)          114.39 -0.001133    0.35    114.74   
    43. A(H  24,N   0,H  25)          112.53 -0.002754    0.87    113.40   
    44. A(C   1,N   0,H  25)          119.07  0.004294   -0.91    118.15   
    45. A(N   2,C   1,N  23)          112.38 -0.002995    0.54    112.91   
    46. A(N   0,C   1,N  23)          121.24 -0.000973    0.20    121.44   
    47. A(N   0,C   1,N   2)          126.37  0.003983   -0.74    125.62   
    48. A(C   1,N   2,C   3)          105.28  0.000941   -0.16    105.11   
    49. A(N   2,C   3,C  22)          110.43  0.001144   -0.20    110.23   
    50. A(C   4,C   3,C  22)          119.20  0.000505   -0.07    119.14   
    51. A(N   2,C   3,C   4)          130.36 -0.001649    0.27    130.64   
    52. A(C   3,C   4,C   5)          118.43 -0.000019    0.01    118.44   
    53. A(C   5,C   4,H  26)          121.16  0.000354   -0.09    121.07   
    54. A(C   3,C   4,H  26)          120.41 -0.000335    0.08    120.49   
    55. A(C   4,C   5,C   6)          122.02 -0.000218    0.01    122.03   
    56. A(C   4,C   5,H  27)          118.38 -0.001697    0.42    118.80   
    57. A(C   6,C   5,H  27)          119.59  0.001916   -0.44    119.16   
    58. A(C   5,C   6,C   7)          120.23  0.000628   -0.12    120.11   
    59. A(C   5,C   6,C  21)          119.80 -0.000979    0.18    119.98   
    60. A(C   7,C   6,C  21)          119.97  0.000351   -0.06    119.91   
    61. A(C   8,C   7,C  20)          118.49 -0.002255    0.38    118.88   
    62. A(C   6,C   7,C  20)          120.70 -0.000511    0.13    120.83   
    63. A(C   6,C   7,C   8)          120.80  0.002766   -0.52    120.29   
    64. A(C   7,C   8,H  28)          119.95  0.002933   -0.62    119.33   
    65. A(C   9,C   8,H  28)          118.78 -0.000764    0.24    119.02   
    66. A(C   7,C   8,C   9)          121.27 -0.002169    0.38    121.65   
    67. A(C  10,C   9,H  29)          119.06  0.001393   -0.34    118.72   
    68. A(C   8,C   9,H  29)          120.15 -0.002550    0.58    120.73   
    69. A(C   8,C   9,C  10)          120.79  0.001158   -0.25    120.55   
    70. A(N  11,C  10,C  19)          121.44  0.000184   -0.05    121.39   
    71. A(C   9,C  10,C  19)          118.69  0.001377   -0.19    118.49   
    72. A(C   9,C  10,N  11)          119.87 -0.001561    0.25    120.12   
    73. A(C  10,N  11,C  12)          117.34 -0.000828    0.18    117.52   
    74. A(N  11,C  12,C  13)          119.76 -0.001070    0.15    119.91   
    75. A(C  13,C  12,C  17)          118.97  0.000577   -0.04    118.93   
    76. A(N  11,C  12,C  17)          121.27  0.000493   -0.11    121.16   
    77. A(C  14,C  13,H  30)          120.31 -0.002946    0.67    120.98   
    78. A(C  12,C  13,C  14)          120.76  0.001633   -0.35    120.41   
    79. A(C  12,C  13,H  30)          118.93  0.001312   -0.32    118.61   
    80. A(C  13,C  14,C  15)          120.28 -0.002251    0.40    120.67   
    81. A(C  13,C  14,H  31)          119.57  0.000527   -0.07    119.51   
    82. A(C  15,C  14,H  31)          120.15  0.001724   -0.33    119.82   
    83. A(C  16,C  15,H  32)          119.57  0.000613   -0.09    119.48   
    84. A(C  14,C  15,H  32)          120.13  0.001758   -0.34    119.79   
    85. A(C  14,C  15,C  16)          120.30 -0.002372    0.42    120.73   
    86. A(C  15,C  16,H  33)          120.30 -0.002951    0.67    120.97   
    87. A(C  17,C  16,H  33)          118.93  0.001328   -0.33    118.61   
    88. A(C  15,C  16,C  17)          120.76  0.001623   -0.34    120.42   
    89. A(C  16,C  17,N  18)          119.75 -0.001074    0.15    119.90   
    90. A(C  12,C  17,N  18)          121.32  0.000284   -0.07    121.25   
    91. A(C  12,C  17,C  16)          118.93  0.000790   -0.08    118.84   
    92. A(C  17,N  18,C  19)          117.38 -0.000771    0.18    117.56   
    93. A(N  18,C  19,C  20)          119.68 -0.001128    0.16    119.84   
    94. A(C  10,C  19,C  20)          119.07  0.000490   -0.02    119.05   
    95. A(C  10,C  19,N  18)          121.25  0.000638   -0.13    121.11   
    96. A(C  19,C  20,H  34)          118.14  0.000287   -0.08    118.06   
    97. A(C   7,C  20,H  34)          120.18 -0.001688    0.38    120.56   
    98. A(C   7,C  20,C  19)          121.68  0.001401   -0.30    121.38   
    99. A(C   6,C  21,H  35)          121.21  0.000701   -0.17    121.05   
   100. A(C   6,C  21,C  22)          117.64 -0.000026    0.01    117.65   
   101. A(C  22,C  21,H  35)          121.14 -0.000674    0.16    121.30   
   102. A(C  21,C  22,N  23)          132.53 -0.000497    0.04    132.57   
   103. A(C   3,C  22,N  23)          104.57 -0.000240    0.10    104.67   
   104. A(C   3,C  22,C  21)          122.90  0.000738   -0.14    122.76   
   105. A(C   1,N  23,C  22)          107.34  0.001151   -0.27    107.07   
   106. A(C  22,N  23,H  36)          126.79 -0.000299    0.07    126.86   
   107. A(C   1,N  23,H  36)          125.84 -0.000849    0.20    126.04   
   108. D(N   2,C   1,N   0,H  24)    -12.42  0.000711   -1.55    -13.96   
   109. D(N  23,C   1,N   0,H  25)     32.07  0.000780   -1.11     30.95   
   110. D(N  23,C   1,N   0,H  24)    169.23  0.000037   -0.32    168.91   
   111. D(N   2,C   1,N   0,H  25)   -149.58  0.001454   -2.34   -151.92   
   112. D(C   3,N   2,C   1,N   0)   -178.38 -0.000748    1.30   -177.08   
   113. D(C   3,N   2,C   1,N  23)      0.10 -0.000108    0.17      0.26   
   114. D(C   4,C   3,N   2,C   1)    179.82  0.000075   -0.16    179.66   
   115. D(C  22,C   3,N   2,C   1)     -0.37  0.000089   -0.11     -0.48   
   116. D(H  26,C   4,C   3,N   2)      0.14 -0.000023    0.11      0.24   
   117. D(H  26,C   4,C   3,C  22)   -179.66 -0.000038    0.05   -179.61   
   118. D(C   5,C   4,C   3,C  22)      0.14 -0.000027    0.07      0.21   
   119. D(C   5,C   4,C   3,N   2)    179.94 -0.000012    0.13    180.06   
   120. D(H  27,C   5,C   4,C   3)   -179.39  0.000018   -0.07   -179.46   
   121. D(C   6,C   5,C   4,C   3)     -0.20  0.000129   -0.30     -0.51   
   122. D(C   6,C   5,C   4,H  26)    179.60  0.000138   -0.29    179.31   
   123. D(H  27,C   5,C   4,H  26)      0.41  0.000028   -0.06      0.36   
   124. D(C  21,C   6,C   5,H  27)    179.37 -0.000057    0.08    179.46   
   125. D(C  21,C   6,C   5,C   4)      0.20 -0.000141    0.31      0.51   
   126. D(C   7,C   6,C   5,H  27)     -0.62 -0.000140    0.33     -0.28   
   127. D(C   7,C   6,C   5,C   4)   -179.79 -0.000223    0.56   -179.23   
   128. D(C  20,C   7,C   6,C  21)    -49.45 -0.002329    8.12    -41.33   
   129. D(C   8,C   7,C   6,C  21)    130.33 -0.002273    7.94    138.27   
   130. D(C  20,C   7,C   6,C   5)    130.54 -0.002246    7.87    138.41   
   131. D(C   8,C   7,C   6,C   5)    -49.69 -0.002190    7.69    -42.00   
   132. D(H  28,C   8,C   7,C  20)    179.46 -0.000053    0.06    179.52   
   133. D(H  28,C   8,C   7,C   6)     -0.32 -0.000112    0.23     -0.09   
   134. D(C   9,C   8,C   7,C  20)      0.19 -0.000105    0.24      0.43   
   135. D(C   9,C   8,C   7,C   6)   -179.59 -0.000164    0.42   -179.18   
   136. D(H  29,C   9,C   8,C   7)    179.63  0.000132   -0.30    179.34   
   137. D(C  10,C   9,C   8,H  28)   -179.31 -0.000044    0.08   -179.22   
   138. D(C  10,C   9,C   8,C   7)     -0.03  0.000034   -0.10     -0.13   
   139. D(H  29,C   9,C   8,H  28)      0.36  0.000054   -0.11      0.25   
   140. D(C  19,C  10,C   9,H  29)   -179.70 -0.000071    0.15   -179.55   
   141. D(C  19,C  10,C   9,C   8)     -0.03  0.000012   -0.04     -0.07   
   142. D(N  11,C  10,C   9,H  29)      0.28 -0.000058    0.12      0.40   
   143. D(N  11,C  10,C   9,C   8)    179.95  0.000025   -0.07    179.88   
   144. D(C  12,N  11,C  10,C  19)     -0.18  0.000019   -0.04     -0.22   
   145. D(C  12,N  11,C  10,C   9)    179.85  0.000005   -0.01    179.83   
   146. D(C  17,C  12,N  11,C  10)      0.06  0.000026   -0.06     -0.00   
   147. D(C  13,C  12,N  11,C  10)   -179.94  0.000021   -0.05   -179.99   
   148. D(H  30,C  13,C  12,C  17)   -180.00  0.000004   -0.01   -180.01   
   149. D(H  30,C  13,C  12,N  11)      0.01  0.000009   -0.02     -0.02   
   150. D(C  14,C  13,C  12,C  17)     -0.01  0.000001   -0.00     -0.02   
   151. D(C  14,C  13,C  12,N  11)    179.99  0.000006   -0.02    179.97   
   152. D(H  31,C  14,C  13,H  30)     -0.00  0.000007   -0.02     -0.02   
   153. D(H  31,C  14,C  13,C  12)   -179.99  0.000009   -0.02   -180.01   
   154. D(C  15,C  14,C  13,H  30)    179.99 -0.000001   -0.00    179.99   
   155. D(C  15,C  14,C  13,C  12)      0.00  0.000002   -0.01     -0.00   
   156. D(H  32,C  15,C  14,H  31)      0.01  0.000001   -0.01      0.00   
   157. D(H  32,C  15,C  14,C  13)   -179.98  0.000009   -0.02   -180.00   
   158. D(C  16,C  15,C  14,H  31)    180.00 -0.000006    0.01    180.01   
   159. D(C  16,C  15,C  14,C  13)      0.01  0.000001   -0.00      0.00   
   160. D(H  33,C  16,C  15,H  32)      0.00  0.000002   -0.00     -0.00   
   161. D(H  33,C  16,C  15,C  14)   -179.99  0.000009   -0.02   -180.01   
   162. D(C  17,C  16,C  15,H  32)    179.98 -0.000016    0.04    180.02   
   163. D(C  17,C  16,C  15,C  14)     -0.01 -0.000009    0.02      0.01   
   164. D(C  12,C  17,C  16,H  33)    179.98 -0.000007    0.01    179.99   
   165. D(C  12,C  17,C  16,C  15)     -0.00  0.000012   -0.03     -0.03   
   166. D(N  18,C  17,C  12,C  13)   -179.93 -0.000016    0.04   -179.90   
   167. D(N  18,C  17,C  12,N  11)      0.06 -0.000022    0.05      0.12   
   168. D(C  16,C  17,C  12,C  13)      0.01 -0.000008    0.02      0.03   
   169. D(N  18,C  17,C  16,C  15)    179.95  0.000021   -0.05    179.90   
   170. D(C  16,C  17,C  12,N  11)   -179.99 -0.000013    0.04   -179.95   
   171. D(N  18,C  17,C  16,H  33)     -0.08  0.000002   -0.00     -0.08   
   172. D(C  19,N  18,C  17,C  16)    179.99 -0.000048    0.09    180.08   
   173. D(C  19,N  18,C  17,C  12)     -0.06 -0.000038    0.07      0.01   
   174. D(C  20,C  19,N  18,C  17)   -179.83  0.000019   -0.07   -179.90   
   175. D(C  10,C  19,N  18,C  17)     -0.06  0.000082   -0.17     -0.23   
   176. D(C  20,C  19,C  10,N  11)    179.95 -0.000020    0.07    180.02   
   177. D(C  20,C  19,C  10,C   9)     -0.07 -0.000007    0.04     -0.03   
   178. D(N  18,C  19,C  10,N  11)      0.19 -0.000079    0.17      0.35   
   179. D(N  18,C  19,C  10,C   9)   -179.84 -0.000066    0.14   -179.70   
   180. D(H  34,C  20,C  19,N  18)      0.54  0.000052   -0.06      0.48   
   181. D(H  34,C  20,C  19,C  10)   -179.23 -0.000010    0.04   -179.19   
   182. D(C   7,C  20,C  19,N  18)   -179.99  0.000008    0.01   -179.99   
   183. D(C   7,C  20,C  19,C  10)      0.24 -0.000054    0.11      0.34   
   184. D(H  34,C  20,C   7,C   8)    179.16  0.000072   -0.18    178.98   
   185. D(H  34,C  20,C   7,C   6)     -1.06  0.000138   -0.36     -1.41   
   186. D(C  19,C  20,C   7,C   8)     -0.29  0.000106   -0.25     -0.54   
   187. D(C  19,C  20,C   7,C   6)    179.49  0.000172   -0.42    179.07   
   188. D(H  35,C  21,C   6,C   7)     -0.82  0.000165   -0.45     -1.27   
   189. D(H  35,C  21,C   6,C   5)    179.19  0.000082   -0.20    178.99   
   190. D(C  22,C  21,C   6,C   7)    179.86  0.000128   -0.33    179.53   
   191. D(C  22,C  21,C   6,C   5)     -0.13  0.000045   -0.08     -0.21   
   192. D(N  23,C  22,C  21,H  35)      0.22 -0.000013    0.10      0.31   
   193. D(N  23,C  22,C  21,C   6)    179.54  0.000033   -0.03    179.52   
   194. D(C   3,C  22,C  21,H  35)   -179.25  0.000010   -0.03   -179.28   
   195. D(C   3,C  22,C  21,C   6)      0.08  0.000057   -0.16     -0.08   
   196. D(N  23,C  22,C   3,C   4)   -179.68 -0.000045    0.06   -179.62   
   197. D(N  23,C  22,C   3,N   2)      0.49 -0.000052    0.02      0.51   
   198. D(C  21,C  22,C   3,C   4)     -0.09 -0.000066    0.16      0.08   
   199. D(C  21,C  22,C   3,N   2)   -179.92 -0.000073    0.11   -179.80   
   200. D(H  36,N  23,C  22,C  21)     -1.78  0.000053   -0.06     -1.83   
   201. D(H  36,N  23,C  22,C   3)    177.76  0.000037    0.05    177.81   
   202. D(C   1,N  23,C  22,C  21)   -179.95  0.000001   -0.03   -179.97   
   203. D(C   1,N  23,C  22,C   3)     -0.41 -0.000015    0.08     -0.33   
   204. D(H  36,N  23,C   1,N   2)   -177.99  0.000009   -0.13   -178.11   
   205. D(H  36,N  23,C   1,N   0)      0.58  0.000700   -1.19     -0.61   
   206. D(C  22,N  23,C   1,N   2)      0.21  0.000072   -0.16      0.05   
   207. D(C  22,N  23,C   1,N   0)    178.78  0.000763   -1.22    177.55   
    ----------------------------------------------------------------------------

Geometry step timings:
Preparation and reading OPT file:      0.000 s ( 0.000 %)
Internal coordinates            :      0.000 s ( 0.000 %)
B/P matrices and projection     :      0.004 s (22.222 %)
Hessian update/contruction      :      0.006 s (33.333 %)
Making the step                 :      0.004 s (22.222 %)
Converting the step to Cartesian:      0.001 s ( 5.556 %)
Storing new data                :      0.000 s ( 0.000 %)
Checking convergence            :      0.001 s ( 5.556 %)
Final printing                  :      0.002 s (11.111 %)
Total time                      :      0.018 s

Time for energy+gradient        :    372.496 s
Time for complete geometry iter :    372.632 s

         *************************************************************
         *                GEOMETRY OPTIMIZATION CYCLE   3            *
         *************************************************************
---------------------------------
CARTESIAN COORDINATES (ANGSTROEM)
---------------------------------
  N      7.109354   -1.702518   -1.086725
  C      5.994014   -0.963791   -0.835427
  N      5.957443    0.353074   -0.687861
  C      4.637794    0.646121   -0.384218
  C      4.012301    1.873379   -0.118156
  C      2.644372    1.875412    0.164115
  C      1.878717    0.684447    0.178043
  C      0.424832    0.737882    0.466447
  C     -0.075778    1.587933    1.510388
  C     -1.413230    1.646658    1.812122
  C     -2.355932    0.857393    1.086816
  N     -3.659871    0.919549    1.390280
  C     -4.501039    0.157594    0.672455
  C     -5.900328    0.184303    0.952246
  C     -6.771183   -0.591551    0.223004
  C     -6.292874   -1.435226   -0.824079
  C     -4.951912   -1.489989   -1.125428
  C     -4.013748   -0.701551   -0.393217
  N     -2.707402   -0.764510   -0.694584
  C     -1.866548   -0.004459    0.025033
  C     -0.469888   -0.031896   -0.255105
  C      2.496967   -0.552954   -0.087784
  C      3.860783   -0.547499   -0.362116
  N      4.763296   -1.559317   -0.650623
  H      7.919089   -1.163676   -1.379636
  H      7.001386   -2.576582   -1.593587
  H      4.586033    2.803416   -0.135644
  H      2.149149    2.829285    0.363464
  H      0.625339    2.193039    2.090099
  H     -1.776248    2.290444    2.616330
  H     -6.261023    0.831987    1.754583
  H     -7.839855   -0.559691    0.449954
  H     -6.997703   -2.045742   -1.394369
  H     -4.581448   -2.134396   -1.925931
  H     -0.121135   -0.675182   -1.065401
  H      1.926408   -1.483918   -0.065611
  H      4.569867   -2.554570   -0.689777

----------------------------
CARTESIAN COORDINATES (A.U.)
----------------------------
  NO LB      ZA    FRAG     MASS         X           Y           Z
   0 N     7.0000    0    14.007   13.434733   -3.217294   -2.053612
   1 C     6.0000    0    12.011   11.327045   -1.821301   -1.578729
   2 N     7.0000    0    14.007   11.257936    0.667214   -1.299868
   3 C     6.0000    0    12.011    8.764161    1.220992   -0.726067
   4 C     6.0000    0    12.011    7.582149    3.540173   -0.223282
   5 C     6.0000    0    12.011    4.997140    3.544016    0.310132
   6 C     6.0000    0    12.011    3.550260    1.293418    0.336452
   7 C     6.0000    0    12.011    0.802816    1.394394    0.881458
   8 C     6.0000    0    12.011   -0.143199    3.000759    2.854219
   9 C     6.0000    0    12.011   -2.670618    3.111732    3.424415
  10 C     6.0000    0    12.011   -4.452066    1.620238    2.053785
  11 N     7.0000    0    14.007   -6.916153    1.737696    2.627249
  12 C     6.0000    0    12.011   -8.505731    0.297809    1.270756
  13 C     6.0000    0    12.011  -11.150004    0.348283    1.799484
  14 C     6.0000    0    12.011  -12.795681   -1.117869    0.421417
  15 C     6.0000    0    12.011  -11.891809   -2.712184   -1.557284
  16 C     6.0000    0    12.011   -9.357758   -2.815671   -2.126751
  17 C     6.0000    0    12.011   -7.584885   -1.325740   -0.743072
  18 N     7.0000    0    14.007   -5.116247   -1.444714   -1.312574
  19 C     6.0000    0    12.011   -3.527265   -0.008426    0.047305
  20 C     6.0000    0    12.011   -0.887959   -0.060275   -0.482078
  21 C     6.0000    0    12.011    4.718584   -1.044931   -0.165889
  22 C     6.0000    0    12.011    7.295823   -1.034623   -0.684301
  23 N     7.0000    0    14.007    9.001326   -2.946681   -1.229499
  24 H     1.0000    0     1.008   14.964910   -2.199029   -2.607135
  25 H     1.0000    0     1.008   13.230702   -4.869034   -3.011442
  26 H     1.0000    0     1.008    8.666346    5.297689   -0.256330
  27 H     1.0000    0     1.008    4.061303    5.346574    0.686847
  28 H     1.0000    0     1.008    1.181720    4.144242    3.949715
  29 H     1.0000    0     1.008   -3.356622    4.328312    4.944147
  30 H     1.0000    0     1.008  -11.831619    1.572227    3.315682
  31 H     1.0000    0     1.008  -14.815178   -1.057663    0.850289
  32 H     1.0000    0     1.008  -13.223742   -3.865891   -2.634975
  33 H     1.0000    0     1.008   -8.657683   -4.033424   -3.639483
  34 H     1.0000    0     1.008   -0.228913   -1.275910   -2.013317
  35 H     1.0000    0     1.008    3.640383   -2.804200   -0.123986
  36 H     1.0000    0     1.008    8.635797   -4.827437   -1.303489

--------------------------------
INTERNAL COORDINATES (ANGSTROEM)
--------------------------------
 N      0   0   0     0.000000000000     0.00000000     0.00000000
 C      1   0   0     1.361195107666     0.00000000     0.00000000
 N      2   1   0     1.325612511263   125.61109762     0.00000000
 C      3   2   1     1.385477947109   105.11702932   182.90342068
 C      4   3   2     1.402923174585   130.63654923   179.66341151
 C      5   4   3     1.396749162077   118.44077209   180.06275626
 C      6   5   4     1.415916665056   122.02940091   359.49364386
 C      7   6   5     1.483176936140   120.11115287   180.77312397
 C      8   7   6     1.436317875876   120.28523870   318.00619605
 C      9   8   7     1.372323353904   121.65560872   180.82394140
 C     10   9   8     1.427478388429   120.54655828   359.87463114
 N     11  10   9     1.340227476252   120.12077125   179.87784080
 C     12  11  10     1.342911976598   117.52077518   179.83248882
 C     13  12  11     1.427237310369   119.91437308   180.00941483
 C     14  13  12     1.375547848212   120.41210153   179.97217194
 C     15  14  13     1.427217902687   120.67649537     0.00000000
 C     16  15  14     1.375495735672   120.72953080     0.00000000
 C     17  16  15     1.427556918878   120.41918789     0.00000000
 N     18  17  16     1.342135599431   119.90600116   179.89799998
 C     19  18  17     1.342594765778   117.56022421   180.08193981
 C      8   7   6     1.383372210021   120.83205974   138.40784006
 C      7   6   5     1.408566435667   119.98095834     0.51048018
 C     22   7   6     1.391144032962   117.65007756   359.79300367
 N      2   1   3     1.379662968071   121.42602150   182.84996217
 H      1   2   3     1.015785046204   114.74120229   346.04618176
 H      1   2   3     1.016145783534   118.15424693   208.09268706
 H      5   4   3     1.092905854089   120.48643886     0.24562895
 H      6   5   4     1.093096444156   118.80461336   180.54245300
 H      9   8   7     1.092603701214   119.32378580   359.91258692
 H     10   9   8     1.092242281963   120.73221803   179.33853252
 H     14  13  12     1.092400913333   118.60698692     0.00000000
 H     15  14  13     1.092968582152   119.50497447   179.99206076
 H     16  15  14     1.093042863517   119.79182170   179.99760081
 H     17  16  15     1.092387006638   120.97400912   179.99270781
 H     21   8   7     1.091799401448   120.55525707   358.58923486
 H     22   7   6     1.092119735813   121.04514444   178.99567678
 H     24   2   1     1.014631058886   126.03586912   359.37718885

---------------------------
INTERNAL COORDINATES (A.U.)
---------------------------
 N      0   0   0     0.000000000000     0.00000000     0.00000000
 C      1   0   0     2.572285968322     0.00000000     0.00000000
 N      2   1   0     2.505044605987   125.61109762     0.00000000
 C      3   2   1     2.618173884623   105.11702932   182.90342068
 C      4   3   2     2.651140586897   130.63654923   179.66341151
 C      5   4   3     2.639473394109   118.44077209   180.06275626
 C      6   5   4     2.675694725410   122.02940091   359.49364386
 C      7   6   5     2.802798217454   120.11115287   180.77312397
 C      8   7   6     2.714247426661   120.28523870   318.00619605
 C      9   8   7     2.593315306063   121.65560872   180.82394140
 C     10   9   8     2.697543216222   120.54655828   359.87463114
 N     11  10   9     2.532662887274   120.12077125   179.87784080
 C     12  11  10     2.537735857734   117.52077518   179.83248882
 C     13  12  11     2.697087644712   119.91437308   180.00941483
 C     14  13  12     2.599408717226   120.41210153   179.97217194
 C     15  14  13     2.697050969507   120.67649537     0.00000000
 C     16  15  14     2.599310238796   120.72953080     0.00000000
 C     17  16  15     2.697691617263   120.41918789     0.00000000
 N     18  17  16     2.536268717510   119.90600116   179.89799998
 C     19  18  17     2.537136416157   117.56022421   180.08193981
 C      8   7   6     2.614194618217   120.83205974   138.40784006
 C      7   6   5     2.661804804844   119.98095834     0.51048018
 C     22   7   6     2.628881235136   117.65007756   359.79300367
 N      2   1   3     2.607185166768   121.42602150   182.84996217
 H      1   2   3     1.919555548259   114.74120229   346.04618176
 H      1   2   3     1.920237243019   118.15424693   208.09268706
 H      5   4   3     2.065292754388   120.48643886     0.24562895
 H      6   5   4     2.065652917418   118.80461336   180.54245300
 H      9   8   7     2.064721768203   119.32378580   359.91258692
 H     10   9   8     2.064038784799   120.73221803   179.33853252
 H     14  13  12     2.064338554646   118.60698692     0.00000000
 H     15  14  13     2.065411293247   119.50497447   179.99206076
 H     16  15  14     2.065551664684   119.79182170   179.99760081
 H     17  16  15     2.064312274799   120.97400912   179.99270781
 H     21   8   7     2.063201861916   120.55525707   358.58923486
 H     22   7   6     2.063807206138   121.04514444   178.99567678
 H     24   2   1     1.917374828266   126.03586912   359.37718885

------------------------------------------------------------------------------
                   ___                                                        
                  /   \      - P O W E R E D   B Y -                         
                 /     \                                                     
                 |  |  |   _    _      __       _____    __    __             
                 |  |  |  | |  | |    /  \     |  _  \  |  |  /  |          
                  \  \/   | |  | |   /    \    | | | |  |  | /  /          
                 / \  \   | |__| |  /  /\  \   | |_| |  |  |/  /          
                |  |  |   |  __  | /  /__\  \  |    /   |      \           
                |  |  |   | |  | | |   __   |  |    \   |  |\   \          
                \     /   | |  | | |  |  |  |  | |\  \  |  | \   \       
                 \___/    |_|  |_| |__|  |__|  |_| \__\ |__|  \__/        
                                                                              
                      - O R C A' S   B I G   F R I E N D -                    
                                      &                                       
                       - I N T E G R A L  F E E D E R -                       
                                                                              
 v1 FN, 2020, v2 2021, v3 2022-2024                                           
------------------------------------------------------------------------------


----------------------
SHARK INTEGRAL PACKAGE
----------------------

Number of atoms                             ...     37
Number of basis functions                   ...    401
Number of shells                            ...    183
Maximum angular momentum                    ...      2
Integral batch strategy                     ... SHARK/LIBINT Hybrid
RI-J (if used) integral strategy            ... SPLIT-RIJ (Revised 2003 algorithm where possible)
Printlevel                                  ...      1
Contraction scheme used                     ... SEGMENTED contraction
Prescreening option                         ... SCHWARTZ
   Thresh                                   ... 2.500e-11
   Tcut                                     ... 2.500e-12
   Tpresel                                  ... 2.500e-12 
Coulomb Range Separation                    ... NOT USED
Exchange Range Separation                   ... NOT USED
Multipole approximations                    ... NOT USED
Finite Nucleus Model                        ... NOT USED
CABS basis                                  ... NOT available
Auxiliary Coulomb fitting basis             ... AVAILABLE
   # of basis functions in Aux-J            ...   1319
   # of shells in Aux-J                     ...    425
   Maximum angular momentum in Aux-J        ...      4
Auxiliary J/K fitting basis                 ... NOT available
Auxiliary Correlation fitting basis         ... NOT available
Auxiliary 'external' fitting basis          ... NOT available

Checking pre-screening integrals            ... done (  0.0 sec) Dimension = 183
   => SHARK Basis and OBASIS are compatible. Storing Pre-screening
Shell pair information
Shell pair cut-off parameter TPreSel        ...   2.5e-12
Total number of shell pairs                 ...     16836
Shell pairs after pre-screening             ...     10529
Total number of primitive shell pairs       ...     62832
Primitive shell pairs kept                  ...     25487
          la=0 lb=0:   3075 shell pairs
          la=1 lb=0:   3847 shell pairs
          la=1 lb=1:   1260 shell pairs
          la=2 lb=0:   1326 shell pairs
          la=2 lb=1:    864 shell pairs
          la=2 lb=2:    157 shell pairs

Checking whether 4 symmetric matrices of dimension 401 fit in memory
:Max Core in MB      =   2000.00
 MB in use           =     15.18
 MB left             =   1984.82
 MB needed           =      2.46
 Data fit in memory  = YES
Calculating RI/J V-Matrix + Cholesky decomp.... done (  0.1 sec)
Calculating Nuclear repulsion               ... done (  0.0 sec) ENN=   1739.272218154890 Eh

Diagonalization of the overlap matrix:
Smallest eigenvalue                        ... 2.164e-04
Time for diagonalization                   ...    0.017 sec
Threshold for overlap eigenvalues          ... 1.000e-07
Number of eigenvalues below threshold      ... 0
Time for construction of square roots      ...    0.011 sec
Total time needed                          ...    0.029 sec

-------------------
DFT GRID GENERATION
-------------------

General Integration Accuracy     IntAcc      ... 4.388
Radial Grid Type                 RadialGrid  ... OptM3 with GC (2021)
Angular Grid (max. ang.)         AngularGrid ... 4 (Lebedev-302)
Angular grid pruning method      GridPruning ... 4 (adaptive)
Weight generation scheme         WeightScheme... mBecke (2022)
Basis function cutoff            BFCut       ... 1.0000e-11
Integration weight cutoff        WCut        ... 1.0000e-14
Partially contracted basis set               ... off
Rotationally invariant grid construction     ... off
Angular grids for H and He will be reduced by one unit

Total number of grid points                  ...   185248
Total number of batches                      ...     2913
Average number of points per batch           ...       63
Average number of grid points per atom       ...     5007

--------------------
COSX GRID GENERATION
--------------------

GRIDX 1
-------
General Integration Accuracy     IntAcc      ... 3.816
Radial Grid Type                 RadialGrid  ... OptM3 with GC (2021)
Angular Grid (max. ang.)         AngularGrid ... 1 (Lebedev-50)
Angular grid pruning method      GridPruning ... 4 (adaptive)
Weight generation scheme         WeightScheme... mBecke (2022)
Basis function cutoff            BFCut       ... 1.0000e-11
Integration weight cutoff        WCut        ... 1.0000e-14
Partially contracted basis set               ... on
Rotationally invariant grid construction     ... off
Angular grids for H and He will be reduced by one unit

Total number of grid points                  ...    23517
Total number of batches                      ...      202
Average number of points per batch           ...      116
Average number of grid points per atom       ...      636
UseSFitting                                  ... on

GRIDX 2
-------
General Integration Accuracy     IntAcc      ... 4.020
Radial Grid Type                 RadialGrid  ... OptM3 with GC (2021)
Angular Grid (max. ang.)         AngularGrid ... 2 (Lebedev-110)
Angular grid pruning method      GridPruning ... 4 (adaptive)
Weight generation scheme         WeightScheme... mBecke (2022)
Basis function cutoff            BFCut       ... 1.0000e-11
Integration weight cutoff        WCut        ... 1.0000e-14
Partially contracted basis set               ... on
Rotationally invariant grid construction     ... off
Angular grids for H and He will be reduced by one unit

Total number of grid points                  ...    52167
Total number of batches                      ...      426
Average number of points per batch           ...      122
Average number of grid points per atom       ...     1410
UseSFitting                                  ... on

GRIDX 3
-------
General Integration Accuracy     IntAcc      ... 4.338
Radial Grid Type                 RadialGrid  ... OptM3 with GC (2021)
Angular Grid (max. ang.)         AngularGrid ... 3 (Lebedev-194)
Angular grid pruning method      GridPruning ... 4 (adaptive)
Weight generation scheme         WeightScheme... mBecke (2022)
Basis function cutoff            BFCut       ... 1.0000e-11
Integration weight cutoff        WCut        ... 1.0000e-14
Partially contracted basis set               ... on
Rotationally invariant grid construction     ... off
Angular grids for H and He will be reduced by one unit

Total number of grid points                  ...   114475
Total number of batches                      ...      914
Average number of points per batch           ...      125
Average number of grid points per atom       ...     3094
UseSFitting                                  ... on
Grids setup in   4.6 sec
Initializing property integral containers    ... done (  0.0 sec)

SHARK setup successfully completed in   5.0 seconds

Maximum memory used throughout the entire STARTUP-calculation: 77.1 MB
Occupation numbers will be reassigned to an Aufbau configuration
             **** ENERGY FILE WAS UPDATED (C:\Users\jabreumiranda\Radioprotection_Pipeline_Project\06_Quantum_DFT_ORCA\CHEMBL1683055_neutral_opt.en.tmp) ****
Finished Guess after   0.2 sec
Maximum memory used throughout the entire GUESS-calculation: 28.5 MB
--------------------
CPCM SOLVATION MODEL
--------------------
CPCM parameters:
  Epsilon                                         ...      80.1510
  Refrac                                          ...       1.3328
  Rsolv                                           ...       1.3000
  Surface type                                    ... GAUSSIAN VDW
  Discretization scheme                           ... Constant charge density
    Threshold for H atoms                         ...       5.0000 (charges/Ang^2)
    Threshold for non-H atoms                     ...       5.0000 (charges/Ang^2)
  Epsilon function type                           ...         CPCM
Solvent:                                          ... WATER
Radii:
  Scheme                                          ... Element-dependent radii
  Radius for N  used is    3.5149 Bohr (=   1.8600 Ang.)
  Radius for C  used is    3.8550 Bohr (=   2.0400 Ang.)
  Radius for H  used is    2.4944 Bohr (=   1.3200 Ang.)
Calculating surface                               ...        done! (  0.0s)
Cavity surface points                             ...         3401
Cavity Volume                                     ...    2409.6210
Cavity Surface-area                               ...    1218.7540
Calculating surface distance matrix               ...        done! (  0.1s)
Performing Cholesky decomposition & store         ...        done! (  0.4s)
Overall time for CPCM initialization              ...                 0.5s

----------------------------------------D-I-I-S--------------------------------------------
Iteration    Energy (Eh)           Delta-E    RMSDP     MaxDP     DIISErr   Damp  Time(sec)
-------------------------------------------------------------------------------------------
               ***  Starting incremental Fock matrix formation  ***
    1    -1004.3226979059704718     0.00e+00  3.45e-04  9.67e-03  3.99e-02  0.700  25.7
    2    -1004.3307462796933578    -8.05e-03  3.03e-04  9.12e-03  3.18e-02  0.700  11.9
                               ***Turning on AO-DIIS***
    3    -1004.3372159017394551    -6.47e-03  2.42e-04  7.82e-03  2.41e-02  0.700  12.1
    4    -1004.3420378529285699    -4.82e-03  6.09e-04  2.01e-02  1.75e-02  0.000  11.7
                              *** Initializing SOSCF ***
---------------------------------------S-O-S-C-F--------------------------------------
Iteration    Energy (Eh)           Delta-E    RMSDP     MaxDP     MaxGrad    Time(sec)
--------------------------------------------------------------------------------------
    5    -1004.3542476818615796    -1.22e-02  4.02e-05  1.01e-03  1.02e-03    12.5
               *** Restarting incremental Fock matrix formation ***
    6    -1004.3542831766908421    -3.55e-05  3.43e-05  7.81e-04  4.16e-04    25.8
    7    -1004.3542954100266797    -1.22e-05  1.56e-05  4.62e-04  1.22e-04    17.5
    8    -1004.3542950447172188     3.65e-07  7.68e-06  2.20e-04  1.63e-04    16.5
    9    -1004.3542962353267285    -1.19e-06  2.87e-06  1.21e-04  1.99e-05    14.8
   10    -1004.3542962092974449     2.60e-08  1.67e-06  7.47e-05  2.26e-05    13.0
   11    -1004.3542962679821358    -5.87e-08  4.84e-07  1.75e-05  3.30e-06    11.9
   12    -1004.3542962657397766     2.24e-09  2.66e-07  1.15e-05  5.81e-06    10.8
                 **** Energy Check signals convergence ****

               *****************************************************
               *                     SUCCESS                       *
               *           SCF CONVERGED AFTER  12 CYCLES          *
               *****************************************************

Recomputing exchange energy using gridx3       ... done (   39.925 sec)
Old exchange energy                            :    -27.197682081 Eh
New exchange energy                            :    -27.197702803 Eh
Exchange energy change after final integration :     -0.000020721 Eh
Total energy after final integration           :  -1004.354316983 Eh
             **** ENERGY FILE WAS UPDATED (C:\Users\jabreumiranda\Radioprotection_Pipeline_Project\06_Quantum_DFT_ORCA\CHEMBL1683055_neutral_opt.en.tmp) ****

----------------
TOTAL SCF ENERGY
----------------

Total Energy       :      -1004.35431698332104 Eh          -27329.87039 eV

Components:
Nuclear Repulsion  :       1739.27221815489020 Eh           47328.00317 eV
Electronic Energy  :      -2743.59195961919886 Eh          -74656.93271 eV
One Electron Energy:      -4815.66655917847493 Eh         -131040.94907 eV
Two Electron Energy:       2072.07459955927607 Eh           56384.01636 eV
CPCM Dielectric    :         -0.03455479753795 Eh              -0.94028 eV

Virial components:
Potential Energy   :      -1998.51359564444738 Eh          -54382.31968 eV
Kinetic Energy     :        994.15927866112634 Eh           27052.44929 eV
Virial Ratio       :          2.01025493453717

DFT components:
N(Alpha)           :       80.999977117150 electrons
N(Beta)            :       80.999977117150 electrons
N(Total)           :      161.999954234299 electrons
E(X)               :     -108.105705841649 Eh       
E(C)               :       -6.528709212337 Eh       
E(XC)              :     -114.634415053986 Eh       

CPCM Solvation Model Properties:
Surface-charge          :         -0.02732002019217
Corrected charge        :         -0.00000000000000
Outlying charge corr.   :          0.00003759310780 Eh               0.00102 eV
Free-energy (cav+disp)  :  This term is not implemented in the current solvation scheme

---------------
SCF CONVERGENCE
---------------

  Last Energy change         ...   -2.2424e-09  Tolerance :   1.0000e-08
  Last MAX-Density change    ...    1.1476e-05  Tolerance :   1.0000e-07
  Last RMS-Density change    ...    2.6616e-07  Tolerance :   5.0000e-09
  Last DIIS Error            ...    1.0200e-03  Tolerance :   5.0000e-07
  Last Orbital Gradient      ...    5.8128e-06  Tolerance :   1.0000e-05
  Last Orbital Rotation      ...    1.2406e-05  Tolerance :   1.0000e-05


Total SCF time: 0 days 0 hours 3 min 54 sec 
Finished LeanSCF after 235.1 sec

Maximum memory used throughout the entire LEANSCF-calculation: 111.8 MB

------------------------------------------------------------------------------
                         ORCA PROPERTY INTEGRAL CALCULATIONS
------------------------------------------------------------------------------

GBWName                                   ... C:\Users\jabreumiranda\Radioprotection_Pipeline_Project\06_Quantum_DFT_ORCA\CHEMBL1683055_neutral_opt.gbw
Number of atoms                           ...     37
Number of basis functions                 ...    401
Max core memory                           ...   2000 MB

Dipole integrals                          ... YES
Quadrupole integrals                      ...  NO
Linear momentum integrals                 ...  NO
Angular momentum integrals                ...  NO
Higher moments length integrals           ...  NO
Higher moments velocity integrals         ...  NO
Kinetic energy integrals                  ...  NO
GIAO right hand sides                     ...  NO
GIAO dipole derivative integrals          ...  NO
SOC integrals                             ...  NO
EPR diamagnetic integrals (GIAO)          ...  NO
EPR gauge integrals                       ...  NO
Field gradient integrals                  ...  NO (   0 nuclei)
Spin-dipole/Fermi contact integrals       ...  NO (   0 nuclei)
Contact density integrals                 ...  NO (   0 nuclei)
Nucleus-orbit integrals                   ...  NO (   0 nuclei)
Geometric perturbations                   ...  NO (  37 nuclei)

Choice of electric origin   ... Center of mass
Position of electric origin ... (  0.0587,  0.0388,  0.0442) 
Choice of magnetic origin   ... GIAO
Position of magnetic origin ... (  0.0000,  0.0000,  0.0000) 

Calculating integrals                     ... Electric Dipole (Length)     done (  0.0 sec)

Property integrals calculated in   0.0 sec

Maximum memory used throughout the entire PROPINT-calculation: 26.9 MB


-------------------------------------------------------------------------------
                          DFT DISPERSION CORRECTION                            
                                                                               
                              DFTD3 V3.1  Rev 1                                
                          USING Becke-Johnson damping                          
-------------------------------------------------------------------------------
-------------------------   ----------------
Dispersion correction           -0.088021098
-------------------------   ----------------


-------------------------   --------------------
FINAL SINGLE POINT ENERGY     -1004.442338081361
-------------------------   --------------------

------------------------------------------------------------------------------
                         ORCA SCF GRADIENT CALCULATION
------------------------------------------------------------------------------

Nuc. rep. gradient        (SHARK) ... done (  0.0 sec)
HCore & Overlap gradient  (SHARK) ... done (  1.1 sec)
Split-RIJ-J gradient      (SHARK) ... done (  6.8 sec)
COSX-gradient                     ... done ( 97.6 sec)
XC gradient                       ... done ( 16.1 sec)
CPCM gradient                     ... done (  5.6 sec)
Dispersion correction             ... done (  0.1 sec)

-------------------
DISPERSION GRADIENT
-------------------

   1   N   :    0.000464001   -0.000210027   -0.000111106
   2   C   :   -0.002631994    0.001877381    0.000731941
   3   N   :    0.000022059   -0.000109439   -0.000005907
   4   C   :    0.001229073   -0.002303971   -0.000498587
   5   C   :    0.000184338    0.000330952   -0.000020843
   6   C   :    0.000560966    0.000206444   -0.000132734
   7   C   :    0.000429622   -0.000124438   -0.000115264
   8   C   :   -0.000185760    0.000033782    0.000066439
   9   C   :   -0.000260829    0.000202408    0.000333376
  10   C   :   -0.000048269    0.000315258    0.000395918
  11   C   :   -0.000405350   -0.000138867   -0.000087566
  12   N   :   -0.000135095    0.000219694    0.000273733
  13   C   :    0.000366304    0.000102978    0.000051442
  14   C   :   -0.000422764    0.000128773    0.000221791
  15   C   :   -0.000366197   -0.000012563    0.000050763
  16   C   :   -0.000265818   -0.000192274   -0.000172145
  17   C   :   -0.000170396   -0.000319334   -0.000334504
  18   C   :    0.000337584    0.000132220    0.000090778
  19   N   :    0.000102127   -0.000208795   -0.000265772
  20   C   :   -0.000584564   -0.000079898   -0.000023501
  21   C   :   -0.000132913   -0.000103206   -0.000165958
  22   C   :    0.000148244   -0.000160543   -0.000001461
  23   C   :    0.001795227    0.000196324   -0.000312693
  24   N   :    0.000155887    0.000395486    0.000025801
  25   H   :    0.000205486   -0.000051980   -0.000054325
  26   H   :    0.000175105   -0.000150075   -0.000080605
  27   H   :    0.000117197    0.000302137    0.000007043
  28   H   :    0.000105061    0.000358423   -0.000016601
  29   H   :   -0.000019033    0.000221380    0.000306973
  30   H   :   -0.000019610    0.000213699    0.000250198
  31   H   :   -0.000203870    0.000143066    0.000199385
  32   H   :   -0.000276322    0.000007673    0.000057990
  33   H   :   -0.000182953   -0.000157343   -0.000146825
  34   H   :   -0.000005334   -0.000210741   -0.000239706
  35   H   :   -0.000056419   -0.000182224   -0.000261426
  36   H   :   -0.000012949   -0.000333898    0.000007348
  37   H   :   -0.000011843   -0.000338460   -0.000023388

Difference to translation invariance:
           :   -0.0000000000   -0.0000000000   -0.0000000000

Difference to rotation invariance:
           :    0.0000000000   -0.0000000000   -0.0000000000

Norm of the Dispersion gradient    ...    0.0051369924
RMS gradient                       ...    0.0004875817
MAX gradient                       ...    0.0026319936

------------------
CARTESIAN GRADIENT
------------------

   1   N   :   -0.002252809   -0.001723261    0.000653939
   2   C   :    0.002433640    0.001582701    0.000539133
   3   N   :    0.000194840    0.001311295   -0.000609475
   4   C   :   -0.001178621   -0.000490321    0.000291761
   5   C   :   -0.000241825    0.001105320    0.000157863
   6   C   :   -0.001254031   -0.000493227   -0.001377905
   7   C   :    0.002203918   -0.001627991   -0.001718846
   8   C   :   -0.001713490    0.002013706    0.002771450
   9   C   :    0.003178867   -0.002655426   -0.001195491
  10   C   :   -0.004342692   -0.001179087   -0.000540467
  11   C   :    0.003221832    0.001064577    0.000626385
  12   N   :   -0.001685147    0.001435854    0.001948838
  13   C   :   -0.001881587    0.000023325    0.000322922
  14   C   :    0.003724798    0.001216736    0.000700104
  15   C   :   -0.000608156   -0.001518695   -0.001596827
  16   C   :   -0.001951936    0.000629884    0.001064331
  17   C   :    0.003980013    0.001312588    0.000832254
  18   C   :   -0.001969919   -0.001222182   -0.001085638
  19   N   :    0.001091013   -0.001531201   -0.001844827
  20   C   :    0.000942310    0.000221616    0.000088777
  21   C   :   -0.001848185    0.000212238   -0.001936921
  22   C   :   -0.001628492    0.000569624    0.002203527
  23   C   :    0.001208350    0.000577900   -0.000272456
  24   N   :   -0.001947345   -0.001902233    0.000327305
  25   H   :    0.000300248   -0.000344751   -0.000067691
  26   H   :    0.001716780    0.000440982   -0.001252897
  27   H   :    0.000215465    0.000187179    0.000008242
  28   H   :    0.000302198    0.000580720    0.000166218
  29   H   :   -0.000725382    0.000758529    0.000729922
  30   H   :    0.001385398    0.000565215    0.000347067
  31   H   :   -0.001493158   -0.000370844   -0.000156442
  32   H   :    0.000028863    0.000663913    0.000752511
  33   H   :    0.000646396   -0.000431294   -0.000605854
  34   H   :   -0.001395263   -0.000580202   -0.000404884
  35   H   :    0.001369679    0.000067037    0.000191435
  36   H   :   -0.000198807   -0.000322630   -0.000276314
  37   H   :    0.000172235   -0.000147593    0.000218950

Difference to translation invariance:
           :    0.0000000000    0.0000000000    0.0000000000

Difference to rotation invariance:
           :   -0.0001763865   -0.0003693258    0.0008563908

Norm of the Cartesian gradient     ...    0.0147176464
RMS gradient                       ...    0.0013969372
MAX gradient                       ...    0.0043426918

-------
TIMINGS
-------

Total SCF gradient time     ....      127.303 sec

Densities                   ....       0.005 sec  (  0.0%)
One electron gradient       ....       1.122 sec  (  0.9%)
RI-J Coulomb gradient       ....       6.780 sec  (  5.3%)
COSX gradient               ....      97.555 sec  ( 76.6%)
XC gradient                 ....      16.121 sec  ( 12.7%)
CPCM gradient               ....       5.626 sec  (  4.4%)
   A-Matrix (El+Nuc)        ....       0.586 sec  (  0.5%)
   Potential                ....       5.040 sec  (  4.0%)

Maximum memory used throughout the entire SCFGRAD-calculation: 59.4 MB
------------------------------------------------------------------------------
                         ORCA GEOMETRY RELAXATION STEP
------------------------------------------------------------------------------

Reading the OPT-File                    .... done
Getting information on internals        .... done
Copying old internal coords+grads       .... done
Making the new internal coordinates     .... (2022 redundants) done
Validating the new internal coordinates .... (2022 redundants) done
Calculating the B-matrix                .... done
Calculating the G,G- and P matrices     .... done
Transforming gradient to internals      .... done
Projecting the internal gradient        .... done
Number of atoms                         ....  37
Number of internal coordinates          .... 207
Current Energy                          .... -1004.442338081 Eh
Current gradient norm                   ....     0.014717646 Eh/bohr
Maximum allowed component of the step   ....  0.300
Current trust radius                    ....  0.450
Updating the Hessian (BFGS)             .... done
Forming the augmented Hessian           .... done
Diagonalizing the augmented Hessian     .... done
Last element of RFO vector              ....  0.969157508
Lowest eigenvalues of augmented Hessian:
 -0.001077248  0.012454273  0.020644260  0.021530307  0.023509739
Length of the computed step             ....  0.254284912
The final length of the internal step   ....  0.254284912
Converting the step to Cartesian space:
 Initial RMS(Int)=    0.0176740231
Transforming coordinates:
 Iter   0:  RMS(Cart)=    0.1006634926 RMS(Int)=    0.8734939273
 Iter   5:  RMS(Cart)=    0.0000000846 RMS(Int)=    0.0000000308
done
Storing new coordinates                 .... done
The predicted energy change is          ....    -0.000573452
Previously predicted energy change      ....    -0.002521391
Actually observed energy change         ....    -0.002953629
Ratio of predicted to observed change   ....     1.171428252
New trust radius                        ....     0.675000000

                                .--------------------.
          ----------------------|Geometry convergence|-------------------------
          Item                value                   Tolerance       Converged
          ---------------------------------------------------------------------
          Energy change      -0.0029536291            0.0000050000      NO
          RMS gradient        0.0006896553            0.0001000000      NO
          MAX gradient        0.0021288241            0.0003000000      NO
          RMS step            0.0176740231            0.0020000000      NO
          MAX step            0.1236003126            0.0040000000      NO
          -------------------------------------------------------------------------
          ........................................................
          Max(Bonds)      0.0049      Max(Angles)    0.60
          Max(Dihed)        7.08      Max(Improp)    0.00
          ---------------------------------------------------------------------

The optimization has not yet converged - more geometry cycles are needed


    ---------------------------------------------------------------------------
                         Redundant Internal Coordinates
                            (Angstroem and degrees)

        Definition                    Value    dE/dq     Step     New-Value
    ----------------------------------------------------------------------------
     1. B(C   1,N   0)                1.3612  0.000816  0.0004    1.3616   
     2. B(N   2,C   1)                1.3256  0.001237 -0.0003    1.3254   
     3. B(C   3,N   2)                1.3855  0.000760 -0.0002    1.3853   
     4. B(C   4,C   3)                1.4029  0.000745 -0.0008    1.4021   
     5. B(C   5,C   4)                1.3967 -0.000193 -0.0002    1.3965   
     6. B(C   6,C   5)                1.4159 -0.000211  0.0007    1.4167   
     7. B(C   7,C   6)                1.4832  0.000268  0.0003    1.4834   
     8. B(C   8,C   7)                1.4363 -0.001877  0.0049    1.4412   
     9. B(C   9,C   8)                1.3723  0.001190 -0.0034    1.3689   
    10. B(C  10,C   9)                1.4275 -0.001595  0.0047    1.4322   
    11. B(N  11,C  10)                1.3402  0.001816 -0.0026    1.3376   
    12. B(C  12,N  11)                1.3429  0.000972 -0.0015    1.3415   
    13. B(C  13,C  12)                1.4272 -0.001328  0.0042    1.4314   
    14. B(C  14,C  13)                1.3755  0.000979 -0.0028    1.3727   
    15. B(C  15,C  14)                1.4272 -0.000667  0.0035    1.4307   
    16. B(C  16,C  15)                1.3755  0.001015 -0.0029    1.3726   
    17. B(C  17,C  16)                1.4276 -0.001522  0.0045    1.4320   
    18. B(C  17,C  12)                1.4530  0.002037  0.0000    1.4530   
    19. B(N  18,C  17)                1.3421  0.001179 -0.0018    1.3404   
    20. B(C  19,N  18)                1.3426  0.001008 -0.0015    1.3411   
    21. B(C  19,C  10)                1.4525  0.001662  0.0005    1.4530   
    22. B(C  20,C  19)                1.4247 -0.000798  0.0033    1.4281   
    23. B(C  20,C   7)                1.3834  0.000059 -0.0018    1.3816   
    24. B(C  21,C   6)                1.4086 -0.001182  0.0014    1.4099   
    25. B(C  22,C  21)                1.3911  0.000801 -0.0015    1.3896   
    26. B(C  22,C   3)                1.4244  0.000232  0.0021    1.4265   
    27. B(N  23,C  22)                1.3862  0.000514  0.0003    1.3864   
    28. B(N  23,C   1)                1.3797  0.002053 -0.0019    1.3777   
    29. B(H  24,N   0)                1.0158  0.000074 -0.0003    1.0155   
    30. B(H  25,N   0)                1.0161  0.000068 -0.0000    1.0161   
    31. B(H  26,C   4)                1.0929  0.000271 -0.0001    1.0928   
    32. B(H  27,C   5)                1.0931  0.000398 -0.0006    1.0925   
    33. B(H  28,C   8)                1.0926  0.000343 -0.0005    1.0921   
    34. B(H  29,C   9)                1.0922  0.000129 -0.0000    1.0922   
    35. B(H  30,C  13)                1.0924  0.000161 -0.0001    1.0923   
    36. B(H  31,C  14)                1.0930  0.000148  0.0000    1.0930   
    37. B(H  32,C  15)                1.0930  0.000138  0.0000    1.0931   
    38. B(H  33,C  16)                1.0924  0.000163 -0.0001    1.0923   
    39. B(H  34,C  20)                1.0918  0.000256 -0.0004    1.0914   
    40. B(H  35,C  21)                1.0921  0.000375 -0.0004    1.0917   
    41. B(H  36,N  23)                1.0146  0.000106  0.0001    1.0147   
    42. A(C   1,N   0,H  24)          114.74 -0.000248    0.17    114.91   
    43. A(H  24,N   0,H  25)          113.40 -0.001472    0.60    114.00   
    44. A(C   1,N   0,H  25)          118.15  0.001876   -0.50    117.66   
    45. A(N   2,C   1,N  23)          112.91 -0.000251    0.12    113.03   
    46. A(N   0,C   1,N  23)          121.43 -0.000596    0.14    121.57   
    47. A(N   0,C   1,N   2)          125.61  0.000853   -0.28    125.33   
    48. A(C   1,N   2,C   3)          105.12  0.000015   -0.03    105.08   
    49. A(N   2,C   3,C  22)          110.23  0.000064   -0.04    110.19   
    50. A(C   4,C   3,C  22)          119.14  0.000395   -0.09    119.04   
    51. A(N   2,C   3,C   4)          130.64 -0.000459    0.13    130.77   
    52. A(C   3,C   4,C   5)          118.44 -0.000468    0.08    118.52   
    53. A(C   5,C   4,H  26)          121.07  0.000319   -0.07    121.00   
    54. A(C   3,C   4,H  26)          120.49  0.000149   -0.00    120.48   
    55. A(C   4,C   5,C   6)          122.03 -0.000217    0.05    122.08   
    56. A(C   4,C   5,H  27)          118.80 -0.000428    0.16    118.96   
    57. A(C   6,C   5,H  27)          119.16  0.000647   -0.22    118.94   
    58. A(C   5,C   6,C   7)          120.11 -0.000496    0.06    120.17   
    59. A(C   5,C   6,C  21)          119.98  0.001102   -0.14    119.84   
    60. A(C   7,C   6,C  21)          119.91 -0.000606    0.09    119.99   
    61. A(C   8,C   7,C  20)          118.88  0.000883   -0.07    118.81   
    62. A(C   6,C   7,C  20)          120.83 -0.002129    0.40    121.23   
    63. A(C   6,C   7,C   8)          120.29  0.001246   -0.33    119.96   
    64. A(C   7,C   8,H  28)          119.32  0.001403   -0.41    118.91   
    65. A(C   9,C   8,H  28)          119.01 -0.001114    0.27    119.28   
    66. A(C   7,C   8,C   9)          121.66 -0.000288    0.14    121.80   
    67. A(C  10,C   9,H  29)          118.72  0.001645   -0.40    118.32   
    68. A(C   8,C   9,H  29)          120.73 -0.001517    0.43    121.16   
    69. A(C   8,C   9,C  10)          120.55 -0.000127   -0.03    120.51   
    70. A(N  11,C  10,C  19)          121.39  0.000277   -0.05    121.34   
    71. A(C   9,C  10,C  19)          118.49  0.000244   -0.09    118.40   
    72. A(C   9,C  10,N  11)          120.12 -0.000521    0.14    120.26   
    73. A(C  10,N  11,C  12)          117.52 -0.001116    0.21    117.73   
    74. A(N  11,C  12,C  13)          119.91 -0.000461    0.11    120.02   
    75. A(C  13,C  12,C  17)          118.92 -0.000192    0.02    118.95   
    76. A(N  11,C  12,C  17)          121.16  0.000653   -0.13    121.03   
    77. A(C  14,C  13,H  30)          120.98 -0.001649    0.47    121.45   
    78. A(C  12,C  13,C  14)          120.41  0.000126   -0.10    120.32   
    79. A(C  12,C  13,H  30)          118.61  0.001523   -0.38    118.23   
    80. A(C  13,C  14,C  15)          120.68  0.000009    0.08    120.76   
    81. A(C  13,C  14,H  31)          119.50 -0.001034    0.20    119.70   
    82. A(C  15,C  14,H  31)          119.82  0.001025   -0.28    119.54   
    83. A(C  16,C  15,H  32)          119.48 -0.000972    0.18    119.66   
    84. A(C  14,C  15,H  32)          119.79  0.001037   -0.28    119.51   
    85. A(C  14,C  15,C  16)          120.73 -0.000066    0.10    120.83   
    86. A(C  15,C  16,H  33)          120.97 -0.001663    0.47    121.45   
    87. A(C  17,C  16,H  33)          118.61  0.001549   -0.38    118.22   
    88. A(C  15,C  16,C  17)          120.42  0.000114   -0.09    120.33   
    89. A(C  16,C  17,N  18)          119.91 -0.000463    0.11    120.01   
    90. A(C  12,C  17,N  18)          121.25  0.000455   -0.09    121.17   
    91. A(C  12,C  17,C  16)          118.84  0.000008   -0.02    118.82   
    92. A(C  17,N  18,C  19)          117.56 -0.001112    0.22    117.78   
    93. A(N  18,C  19,C  20)          119.85 -0.000433    0.11    119.95   
    94. A(C  10,C  19,C  20)          119.04 -0.000410    0.06    119.10   
    95. A(C  10,C  19,N  18)          121.11  0.000843   -0.16    120.95   
    96. A(C  19,C  20,H  34)          118.06  0.001533   -0.33    117.73   
    97. A(C   7,C  20,H  34)          120.56 -0.001230    0.33    120.89   
    98. A(C   7,C  20,C  19)          121.38 -0.000302   -0.01    121.38   
    99. A(C   6,C  21,H  35)          121.05  0.000290   -0.09    120.96   
   100. A(C   6,C  21,C  22)          117.65 -0.000446    0.09    117.74   
   101. A(C  22,C  21,H  35)          121.30  0.000158   -0.01    121.29   
   102. A(C  21,C  22,N  23)          132.57 -0.000275    0.05    132.61   
   103. A(C   3,C  22,N  23)          104.67  0.000640   -0.06    104.61   
   104. A(C   3,C  22,C  21)          122.76 -0.000365    0.02    122.78   
   105. A(C   1,N  23,C  22)          107.07 -0.000469    0.02    107.09   
   106. A(C  22,N  23,H  36)          126.86  0.000374   -0.05    126.81   
   107. A(C   1,N  23,H  36)          126.04  0.000093    0.03    126.07   
   108. D(N   2,C   1,N   0,H  24)    -13.95  0.000493   -1.36    -15.32   
   109. D(N  23,C   1,N   0,H  25)     30.94  0.000776   -1.49     29.45   
   110. D(N  23,C   1,N   0,H  24)    168.90  0.000336   -0.88    168.02   
   111. D(N   2,C   1,N   0,H  25)   -151.91  0.000933   -1.98   -153.88   
   112. D(C   3,N   2,C   1,N   0)   -177.10 -0.000149    0.50   -176.59   
   113. D(C   3,N   2,C   1,N  23)      0.26 -0.000016    0.05      0.32   
   114. D(C   4,C   3,N   2,C   1)    179.66  0.000054   -0.16    179.50   
   115. D(C  22,C   3,N   2,C   1)     -0.48  0.000015   -0.04     -0.52   
   116. D(H  26,C   4,C   3,N   2)      0.25 -0.000064    0.21      0.45   
   117. D(H  26,C   4,C   3,C  22)   -179.60 -0.000022    0.08   -179.53   
   118. D(C   5,C   4,C   3,C  22)      0.21 -0.000029    0.10      0.31   
   119. D(C   5,C   4,C   3,N   2)   -179.94 -0.000071    0.23   -179.71   
   120. D(H  27,C   5,C   4,C   3)   -179.46 -0.000063    0.19   -179.27   
   121. D(C   6,C   5,C   4,C   3)     -0.51  0.000051   -0.17     -0.67   
   122. D(C   6,C   5,C   4,H  26)    179.31  0.000044   -0.14    179.16   
   123. D(H  27,C   5,C   4,H  26)      0.36 -0.000070    0.21      0.57   
   124. D(C  21,C   6,C   5,H  27)    179.46  0.000101   -0.32    179.13   
   125. D(C  21,C   6,C   5,C   4)      0.51 -0.000002    0.03      0.54   
   126. D(C   7,C   6,C   5,H  27)     -0.28  0.000058   -0.15     -0.43   
   127. D(C   7,C   6,C   5,C   4)   -179.23 -0.000046    0.21   -179.02   
   128. D(C  20,C   7,C   6,C  21)    -41.33 -0.001387    7.08    -34.25   
   129. D(C   8,C   7,C   6,C  21)    138.27 -0.001382    7.07    145.33   
   130. D(C  20,C   7,C   6,C   5)    138.41 -0.001339    6.91    145.31   
   131. D(C   8,C   7,C   6,C   5)    -41.99 -0.001335    6.89    -35.10   
   132. D(H  28,C   8,C   7,C  20)    179.52  0.000073   -0.23    179.29   
   133. D(H  28,C   8,C   7,C   6)     -0.09  0.000080   -0.21     -0.30   
   134. D(C   9,C   8,C   7,C  20)      0.43 -0.000034    0.13      0.56   
   135. D(C   9,C   8,C   7,C   6)   -179.18 -0.000027    0.15   -179.03   
   136. D(H  29,C   9,C   8,C   7)    179.34  0.000071   -0.20    179.14   
   137. D(C  10,C   9,C   8,H  28)   -179.22 -0.000087    0.24   -178.98   
   138. D(C  10,C   9,C   8,C   7)     -0.13  0.000042   -0.12     -0.25   
   139. D(H  29,C   9,C   8,H  28)      0.25 -0.000058    0.16      0.41   
   140. D(C  19,C  10,C   9,H  29)   -179.55 -0.000018    0.08   -179.47   
   141. D(C  19,C  10,C   9,C   8)     -0.07 -0.000006    0.00     -0.07   
   142. D(N  11,C  10,C   9,H  29)      0.40 -0.000022    0.09      0.49   
   143. D(N  11,C  10,C   9,C   8)    179.88 -0.000010    0.02    179.90   
   144. D(C  12,N  11,C  10,C  19)     -0.22  0.000014   -0.04     -0.26   
   145. D(C  12,N  11,C  10,C   9)    179.83  0.000018   -0.06    179.78   
   146. D(C  17,C  12,N  11,C  10)     -0.00  0.000015   -0.05     -0.05   
   147. D(C  13,C  12,N  11,C  10)   -179.99  0.000000   -0.00   -179.99   
   148. D(H  30,C  13,C  12,C  17)    179.99 -0.000002    0.01    180.00   
   149. D(H  30,C  13,C  12,N  11)     -0.02  0.000012   -0.04     -0.05   
   150. D(C  14,C  13,C  12,C  17)     -0.02  0.000004   -0.01     -0.03   
   151. D(C  14,C  13,C  12,N  11)    179.97  0.000018   -0.05    179.92   
   152. D(H  31,C  14,C  13,H  30)     -0.02  0.000006   -0.02     -0.04   
   153. D(H  31,C  14,C  13,C  12)    179.99 -0.000000   -0.00    179.99   
   154. D(C  15,C  14,C  13,H  30)    179.99  0.000005   -0.02    179.97   
   155. D(C  15,C  14,C  13,C  12)     -0.00 -0.000001    0.00     -0.00   
   156. D(H  32,C  15,C  14,H  31)      0.00  0.000001   -0.00     -0.00   
   157. D(H  32,C  15,C  14,C  13)    180.00  0.000002   -0.01    179.99   
   158. D(C  16,C  15,C  14,H  31)   -179.99  0.000001   -0.00   -179.99   
   159. D(C  16,C  15,C  14,C  13)      0.00  0.000001   -0.00      0.00   
   160. D(H  33,C  16,C  15,H  32)     -0.00  0.000001   -0.00     -0.00   
   161. D(H  33,C  16,C  15,C  14)    179.99  0.000001   -0.00    179.99   
   162. D(C  17,C  16,C  15,H  32)   -179.98 -0.000005    0.02   -179.96   
   163. D(C  17,C  16,C  15,C  14)      0.01 -0.000005    0.01      0.03   
   164. D(C  12,C  17,C  16,H  33)    179.99  0.000003   -0.01    179.98   
   165. D(C  12,C  17,C  16,C  15)     -0.03  0.000008   -0.02     -0.06   
   166. D(N  18,C  17,C  12,C  13)   -179.90 -0.000005    0.02   -179.88   
   167. D(N  18,C  17,C  12,N  11)      0.12 -0.000019    0.06      0.18   
   168. D(C  16,C  17,C  12,C  13)      0.03 -0.000007    0.02      0.06   
   169. D(N  18,C  17,C  16,C  15)    179.90  0.000006   -0.02    179.88   
   170. D(C  16,C  17,C  12,N  11)   -179.95 -0.000021    0.07   -179.89   
   171. D(N  18,C  17,C  16,H  33)     -0.08  0.000001   -0.00     -0.08   
   172. D(C  19,N  18,C  17,C  16)   -179.92 -0.000005    0.02   -179.90   
   173. D(C  19,N  18,C  17,C  12)      0.01 -0.000007    0.02      0.03   
   174. D(C  20,C  19,N  18,C  17)   -179.90  0.000027   -0.07   -179.97   
   175. D(C  10,C  19,N  18,C  17)     -0.23  0.000034   -0.11     -0.34   
   176. D(C  20,C  19,C  10,N  11)   -179.98 -0.000029    0.09   -179.89   
   177. D(C  20,C  19,C  10,C   9)     -0.03 -0.000034    0.11      0.08   
   178. D(N  18,C  19,C  10,N  11)      0.35 -0.000036    0.13      0.48   
   179. D(N  18,C  19,C  10,C   9)   -179.70 -0.000040    0.14   -179.55   
   180. D(H  34,C  20,C  19,N  18)      0.48 -0.000073    0.22      0.70   
   181. D(H  34,C  20,C  19,C  10)   -179.19 -0.000084    0.26   -178.93   
   182. D(C   7,C  20,C  19,N  18)   -179.99  0.000047   -0.14   -180.12   
   183. D(C   7,C  20,C  19,C  10)      0.34  0.000036   -0.10      0.24   
   184. D(H  34,C  20,C   7,C   8)    178.99  0.000128   -0.39    178.60   
   185. D(H  34,C  20,C   7,C   6)     -1.41  0.000135   -0.40     -1.81   
   186. D(C  19,C  20,C   7,C   8)     -0.54 -0.000008   -0.02     -0.55   
   187. D(C  19,C  20,C   7,C   6)    179.07 -0.000001   -0.03    179.04   
   188. D(H  35,C  21,C   6,C   7)     -1.27  0.000166   -0.56     -1.83   
   189. D(H  35,C  21,C   6,C   5)    179.00  0.000123   -0.39    178.61   
   190. D(C  22,C  21,C   6,C   7)    179.53 -0.000013   -0.00    179.53   
   191. D(C  22,C  21,C   6,C   5)     -0.21 -0.000056    0.17     -0.04   
   192. D(N  23,C  22,C  21,H  35)      0.31 -0.000094    0.30      0.61   
   193. D(N  23,C  22,C  21,C   6)    179.51  0.000087   -0.26    179.26   
   194. D(C   3,C  22,C  21,H  35)   -179.28 -0.000106    0.31   -178.97   
   195. D(C   3,C  22,C  21,C   6)     -0.08  0.000075   -0.25     -0.32   
   196. D(N  23,C  22,C   3,C   4)   -179.61 -0.000041    0.12   -179.49   
   197. D(N  23,C  22,C   3,N   2)      0.51 -0.000006    0.01      0.52   
   198. D(C  21,C  22,C   3,C   4)      0.07 -0.000034    0.11      0.19   
   199. D(C  21,C  22,C   3,N   2)   -179.80  0.000001    0.01   -179.80   
   200. D(H  36,N  23,C  22,C  21)     -1.84 -0.000064    0.17     -1.67   
   201. D(H  36,N  23,C  22,C   3)    177.81 -0.000056    0.16    177.97   
   202. D(C   1,N  23,C  22,C  21)   -179.98 -0.000009    0.02   -179.95   
   203. D(C   1,N  23,C  22,C   3)     -0.33 -0.000001    0.02     -0.32   
   204. D(H  36,N  23,C   1,N   2)   -178.11  0.000057   -0.18   -178.29   
   205. D(H  36,N  23,C   1,N   0)     -0.62  0.000227   -0.62     -1.24   
   206. D(C  22,N  23,C   1,N   2)      0.05  0.000009   -0.04      0.01   
   207. D(C  22,N  23,C   1,N   0)    177.54  0.000179   -0.48    177.06   
    ----------------------------------------------------------------------------

Geometry step timings:
Preparation and reading OPT file:      0.012 s (22.222 %)
Internal coordinates            :      0.000 s ( 0.000 %)
B/P matrices and projection     :      0.004 s ( 7.407 %)
Hessian update/contruction      :      0.032 s (59.259 %)
Making the step                 :      0.002 s ( 3.704 %)
Converting the step to Cartesian:      0.001 s ( 1.852 %)
Storing new data                :      0.000 s ( 0.000 %)
Checking convergence            :      0.000 s ( 0.000 %)
Final printing                  :      0.003 s ( 5.556 %)
Total time                      :      0.054 s

Time for energy+gradient        :    368.308 s
Time for complete geometry iter :    368.481 s

         *************************************************************
         *                GEOMETRY OPTIMIZATION CYCLE   4            *
         *************************************************************
---------------------------------
CARTESIAN COORDINATES (ANGSTROEM)
---------------------------------
  N      7.097859   -1.707363   -1.130110
  C      5.986898   -0.968315   -0.859040
  N      5.972611    0.335800   -0.623113
  C      4.653154    0.633667   -0.324057
  C      4.043495    1.849493    0.016518
  C      2.671570    1.857446    0.277233
  C      1.883061    0.683458    0.194021
  C      0.424736    0.744561    0.458852
  C     -0.088026    1.647365    1.458443
  C     -1.424166    1.720397    1.746971
  C     -2.364633    0.894480    1.050907
  N     -3.668922    0.968453    1.338334
  C     -4.505341    0.175226    0.652262
  C     -5.910942    0.214602    0.920056
  C     -6.772518   -0.593258    0.220467
  C     -6.284452   -1.486060   -0.785269
  C     -4.944311   -1.555620   -1.073850
  C     -4.009061   -0.731821   -0.368645
  N     -2.701523   -0.806722   -0.653856
  C     -1.865203   -0.016589    0.035147
  C     -0.462867   -0.058217   -0.231458
  C      2.486036   -0.543572   -0.150543
  C      3.853366   -0.545226   -0.398424
  N      4.744395   -1.551333   -0.739092
  H      7.919362   -1.167264   -1.384479
  H      6.977731   -2.557641   -1.673368
  H      4.632392    2.768306    0.072796
  H      2.186845    2.802925    0.531470
  H      0.613295    2.274274    2.013296
  H     -1.800006    2.398416    2.516369
  H     -6.271241    0.900692    1.689855
  H     -7.843897   -0.555101    0.433253
  H     -6.988644   -2.120348   -1.329877
  H     -4.560690   -2.233672   -1.839467
  H     -0.114138   -0.737644   -1.011167
  H      1.900038   -1.463431   -0.198041
  H      4.533737   -2.537462   -0.852294

----------------------------
CARTESIAN COORDINATES (A.U.)
----------------------------
  NO LB      ZA    FRAG     MASS         X           Y           Z
   0 N     7.0000    0    14.007   13.413010   -3.226448   -2.135598
   1 C     6.0000    0    12.011   11.313598   -1.829851   -1.623350
   2 N     7.0000    0    14.007   11.286599    0.634570   -1.177513
   3 C     6.0000    0    12.011    8.793186    1.197456   -0.612379
   4 C     6.0000    0    12.011    7.641099    3.495036    0.031215
   5 C     6.0000    0    12.011    5.048536    3.510065    0.523894
   6 C     6.0000    0    12.011    3.558469    1.291548    0.366646
   7 C     6.0000    0    12.011    0.802635    1.407016    0.867104
   8 C     6.0000    0    12.011   -0.166344    3.113069    2.756058
   9 C     6.0000    0    12.011   -2.691285    3.251080    3.301297
  10 C     6.0000    0    12.011   -4.468508    1.690323    1.985927
  11 N     7.0000    0    14.007   -6.933258    1.830111    2.529085
  12 C     6.0000    0    12.011   -8.513860    0.331128    1.232596
  13 C     6.0000    0    12.011  -11.170062    0.405539    1.738654
  14 C     6.0000    0    12.011  -12.798205   -1.121096    0.416622
  15 C     6.0000    0    12.011  -11.875893   -2.808247   -1.483943
  16 C     6.0000    0    12.011   -9.343394   -2.939695   -2.029283
  17 C     6.0000    0    12.011   -7.576027   -1.382940   -0.696638
  18 N     7.0000    0    14.007   -5.105139   -1.524483   -1.235609
  19 C     6.0000    0    12.011   -3.524723   -0.031349    0.066418
  20 C     6.0000    0    12.011   -0.874693   -0.110015   -0.437393
  21 C     6.0000    0    12.011    4.697926   -1.027203   -0.284485
  22 C     6.0000    0    12.011    7.281807   -1.030329   -0.752913
  23 N     7.0000    0    14.007    8.965607   -2.931595   -1.396682
  24 H     1.0000    0     1.008   14.965425   -2.205810   -2.616285
  25 H     1.0000    0     1.008   13.186000   -4.833241   -3.162206
  26 H     1.0000    0     1.008    8.753953    5.231340    0.137565
  27 H     1.0000    0     1.008    4.132538    5.296760    1.004334
  28 H     1.0000    0     1.008    1.158960    4.297755    3.804578
  29 H     1.0000    0     1.008   -3.401518    4.532350    4.755249
  30 H     1.0000    0     1.008  -11.850928    1.702061    3.193364
  31 H     1.0000    0     1.008  -14.822817   -1.048989    0.818729
  32 H     1.0000    0     1.008  -13.206624   -4.006878   -2.513103
  33 H     1.0000    0     1.008   -8.618455   -4.221028   -3.476089
  34 H     1.0000    0     1.008   -0.215689   -1.393945   -1.910828
  35 H     1.0000    0     1.008    3.590552   -2.765484   -0.374244
  36 H     1.0000    0     1.008    8.567522   -4.795107   -1.610602

--------------------------------
INTERNAL COORDINATES (ANGSTROEM)
--------------------------------
 N      0   0   0     0.000000000000     0.00000000     0.00000000
 C      1   0   0     1.361581566060     0.00000000     0.00000000
 N      2   1   0     1.325361277561   125.33243477     0.00000000
 C      3   2   1     1.385325133157   105.08571328   183.40123799
 C      4   3   2     1.402108852030   130.77015627   179.50158112
 C      5   4   3     1.396500855432   118.51895266   180.28951489
 C      6   5   4     1.416658412019   122.08101751   359.32670389
 C      7   6   5     1.483434990710   120.16921556   180.97883043
 C      8   7   6     1.441236497032   119.95885681   324.89574051
 C      9   8   7     1.368887956298   121.79451828   180.96875855
 C     10   9   8     1.432173414457   120.51429607   359.75082126
 N     11  10   9     1.337631110244   120.26344775   179.89574442
 C     12  11  10     1.341454538169   117.73462525   179.77504335
 C     13  12  11     1.431425811436   120.02114736   180.00605763
 C     14  13  12     1.372726182594   120.31694899   179.91881534
 C     15  14  13     1.430667064831   120.75742618     0.00000000
 C     16  15  14     1.372623466887   120.83004219     0.00000000
 C     17  16  15     1.432009823517   120.32869922     0.02880845
 N     18  17  16     1.340376851524   120.01110314   179.87552761
 C     19  18  17     1.341068909848   117.78123302   180.09930129
 C      8   7   6     1.381600875696   121.22750786   145.31450317
 C      7   6   5     1.409930850446   119.83598882     0.54105929
 C     22   7   6     1.389619210000   117.73822718   359.96568254
 N      2   1   3     1.377719434421   121.56684569   183.33328529
 H      1   2   3     1.015517979894   114.91282663   344.68432109
 H      1   2   3     1.016136335011   117.65629411   206.11738355
 H      5   4   3     1.092786906084   120.48283378     0.45188894
 H      6   5   4     1.092485502376   118.96379116   180.73110998
 H      9   8   7     1.092120540682   118.91260041   359.70114423
 H     10   9   8     1.092216995356   121.16285423   179.13787978
 H     14  13  12     1.092303101407   118.23092225   359.94467683
 H     15  14  13     1.092970949445   119.70105580   179.99113619
 H     16  15  14     1.093071857935   119.51133766   179.99195029
 H     17  16  15     1.092286113639   121.44769372   179.98745320
 H     21   8   7     1.091411219847   120.88980961   358.18513392
 H     22   7   6     1.091691094675   120.95518823   178.61239403
 H     24   2   1     1.014711872571   126.06986234   358.75369374

---------------------------
INTERNAL COORDINATES (A.U.)
---------------------------
 N      0   0   0     0.000000000000     0.00000000     0.00000000
 C      1   0   0     2.573016268849     0.00000000     0.00000000
 N      2   1   0     2.504569843095   125.33243477     0.00000000
 C      3   2   1     2.617885108104   105.08571328   183.40123799
 C      4   3   2     2.649601740284   130.77015627   179.50158112
 C      5   4   3     2.639004162553   118.51895266   180.28951489
 C      6   5   4     2.677096424032   122.08101751   359.32670389
 C      7   6   5     2.803285869918   120.16921556   180.97883043
 C      8   7   6     2.723542273603   119.95885681   324.89574051
 C      9   8   7     2.586823345427   121.79451828   180.96875855
 C     10   9   8     2.706415529607   120.51429607   359.75082126
 N     11  10   9     2.527756466574   120.26344775   179.89574442
 C     12  11  10     2.534981698245   117.73462525   179.77504335
 C     13  12  11     2.705002764641   120.02114736   180.00605763
 C     14  13  12     2.594076541965   120.31694899   179.91881534
 C     15  14  13     2.703568941352   120.75742618     0.00000000
 C     16  15  14     2.593882437410   120.83004219     0.00000000
 C     17  16  15     2.706106387532   120.32869922     0.02880845
 N     18  17  16     2.532945165629   120.01110314   179.87552761
 C     19  18  17     2.534252966329   117.78123302   180.09930129
 C      8   7   6     2.610847281452   121.22750786   145.31450317
 C      7   6   5     2.664383175110   119.83598882     0.54105929
 C     22   7   6     2.625999737337   117.73822718   359.96568254
 N      2   1   3     2.603512420437   121.56684569   183.33328529
 H      1   2   3     1.919050866072   114.91282663   344.68432109
 H      1   2   3     1.920219387897   117.65629411   206.11738355
 H      5   4   3     2.065067975235   120.48283378     0.45188894
 H      6   5   4     2.064498404770   118.96379116   180.73110998
 H      9   8   7     2.063808727119   118.91260041   359.70114423
 H     10   9   8     2.063991000037   121.16285423   179.13787978
 H     14  13  12     2.064153716892   118.23092225   359.94467683
 H     15  14  13     2.065415766782   119.70105580   179.99113619
 H     16  15  14     2.065606456193   119.51133766   179.99195029
 H     17  16  15     2.064121614664   121.44769372   179.98745320
 H     21   8   7     2.062468305000   120.88980961   358.18513392
 H     22   7   6     2.062997191776   120.95518823   178.61239403
 H     24   2   1     1.917527543997   126.06986234   358.75369374

------------------------------------------------------------------------------
                   ___                                                        
                  /   \      - P O W E R E D   B Y -                         
                 /     \                                                     
                 |  |  |   _    _      __       _____    __    __             
                 |  |  |  | |  | |    /  \     |  _  \  |  |  /  |          
                  \  \/   | |  | |   /    \    | | | |  |  | /  /          
                 / \  \   | |__| |  /  /\  \   | |_| |  |  |/  /          
                |  |  |   |  __  | /  /__\  \  |    /   |      \           
                |  |  |   | |  | | |   __   |  |    \   |  |\   \          
                \     /   | |  | | |  |  |  |  | |\  \  |  | \   \       
                 \___/    |_|  |_| |__|  |__|  |_| \__\ |__|  \__/        
                                                                              
                      - O R C A' S   B I G   F R I E N D -                    
                                      &                                       
                       - I N T E G R A L  F E E D E R -                       
                                                                              
 v1 FN, 2020, v2 2021, v3 2022-2024                                           
------------------------------------------------------------------------------


----------------------
SHARK INTEGRAL PACKAGE
----------------------

Number of atoms                             ...     37
Number of basis functions                   ...    401
Number of shells                            ...    183
Maximum angular momentum                    ...      2
Integral batch strategy                     ... SHARK/LIBINT Hybrid
RI-J (if used) integral strategy            ... SPLIT-RIJ (Revised 2003 algorithm where possible)
Printlevel                                  ...      1
Contraction scheme used                     ... SEGMENTED contraction
Prescreening option                         ... SCHWARTZ
   Thresh                                   ... 2.500e-11
   Tcut                                     ... 2.500e-12
   Tpresel                                  ... 2.500e-12 
Coulomb Range Separation                    ... NOT USED
Exchange Range Separation                   ... NOT USED
Multipole approximations                    ... NOT USED
Finite Nucleus Model                        ... NOT USED
CABS basis                                  ... NOT available
Auxiliary Coulomb fitting basis             ... AVAILABLE
   # of basis functions in Aux-J            ...   1319
   # of shells in Aux-J                     ...    425
   Maximum angular momentum in Aux-J        ...      4
Auxiliary J/K fitting basis                 ... NOT available
Auxiliary Correlation fitting basis         ... NOT available
Auxiliary 'external' fitting basis          ... NOT available

Checking pre-screening integrals            ... done (  0.0 sec) Dimension = 183
   => SHARK Basis and OBASIS are compatible. Storing Pre-screening
Shell pair information
Shell pair cut-off parameter TPreSel        ...   2.5e-12
Total number of shell pairs                 ...     16836
Shell pairs after pre-screening             ...     10530
Total number of primitive shell pairs       ...     62832
Primitive shell pairs kept                  ...     25476
          la=0 lb=0:   3073 shell pairs
          la=1 lb=0:   3849 shell pairs
          la=1 lb=1:   1261 shell pairs
          la=2 lb=0:   1326 shell pairs
          la=2 lb=1:    864 shell pairs
          la=2 lb=2:    157 shell pairs

Checking whether 4 symmetric matrices of dimension 401 fit in memory
:Max Core in MB      =   2000.00
 MB in use           =     15.18
 MB left             =   1984.82
 MB needed           =      2.46
 Data fit in memory  = YES
Calculating RI/J V-Matrix + Cholesky decomp.... done (  0.1 sec)
Calculating Nuclear repulsion               ... done (  0.0 sec) ENN=   1739.065687449633 Eh

Diagonalization of the overlap matrix:
Smallest eigenvalue                        ... 2.194e-04
Time for diagonalization                   ...    0.015 sec
Threshold for overlap eigenvalues          ... 1.000e-07
Number of eigenvalues below threshold      ... 0
Time for construction of square roots      ...    0.011 sec
Total time needed                          ...    0.028 sec

-------------------
DFT GRID GENERATION
-------------------

General Integration Accuracy     IntAcc      ... 4.388
Radial Grid Type                 RadialGrid  ... OptM3 with GC (2021)
Angular Grid (max. ang.)         AngularGrid ... 4 (Lebedev-302)
Angular grid pruning method      GridPruning ... 4 (adaptive)
Weight generation scheme         WeightScheme... mBecke (2022)
Basis function cutoff            BFCut       ... 1.0000e-11
Integration weight cutoff        WCut        ... 1.0000e-14
Partially contracted basis set               ... off
Rotationally invariant grid construction     ... off
Angular grids for H and He will be reduced by one unit

Total number of grid points                  ...   185205
Total number of batches                      ...     2914
Average number of points per batch           ...       63
Average number of grid points per atom       ...     5006

--------------------
COSX GRID GENERATION
--------------------

GRIDX 1
-------
General Integration Accuracy     IntAcc      ... 3.816
Radial Grid Type                 RadialGrid  ... OptM3 with GC (2021)
Angular Grid (max. ang.)         AngularGrid ... 1 (Lebedev-50)
Angular grid pruning method      GridPruning ... 4 (adaptive)
Weight generation scheme         WeightScheme... mBecke (2022)
Basis function cutoff            BFCut       ... 1.0000e-11
Integration weight cutoff        WCut        ... 1.0000e-14
Partially contracted basis set               ... on
Rotationally invariant grid construction     ... off
Angular grids for H and He will be reduced by one unit

Total number of grid points                  ...    23516
Total number of batches                      ...      201
Average number of points per batch           ...      116
Average number of grid points per atom       ...      636
UseSFitting                                  ... on

GRIDX 2
-------
General Integration Accuracy     IntAcc      ... 4.020
Radial Grid Type                 RadialGrid  ... OptM3 with GC (2021)
Angular Grid (max. ang.)         AngularGrid ... 2 (Lebedev-110)
Angular grid pruning method      GridPruning ... 4 (adaptive)
Weight generation scheme         WeightScheme... mBecke (2022)
Basis function cutoff            BFCut       ... 1.0000e-11
Integration weight cutoff        WCut        ... 1.0000e-14
Partially contracted basis set               ... on
Rotationally invariant grid construction     ... off
Angular grids for H and He will be reduced by one unit

Total number of grid points                  ...    52167
Total number of batches                      ...      426
Average number of points per batch           ...      122
Average number of grid points per atom       ...     1410
UseSFitting                                  ... on

GRIDX 3
-------
General Integration Accuracy     IntAcc      ... 4.338
Radial Grid Type                 RadialGrid  ... OptM3 with GC (2021)
Angular Grid (max. ang.)         AngularGrid ... 3 (Lebedev-194)
Angular grid pruning method      GridPruning ... 4 (adaptive)
Weight generation scheme         WeightScheme... mBecke (2022)
Basis function cutoff            BFCut       ... 1.0000e-11
Integration weight cutoff        WCut        ... 1.0000e-14
Partially contracted basis set               ... on
Rotationally invariant grid construction     ... off
Angular grids for H and He will be reduced by one unit

Total number of grid points                  ...   114475
Total number of batches                      ...      916
Average number of points per batch           ...      124
Average number of grid points per atom       ...     3094
UseSFitting                                  ... on
Grids setup in   4.6 sec
Initializing property integral containers    ... done (  0.0 sec)

SHARK setup successfully completed in   5.0 seconds

Maximum memory used throughout the entire STARTUP-calculation: 77.0 MB
Occupation numbers will be reassigned to an Aufbau configuration
             **** ENERGY FILE WAS UPDATED (C:\Users\jabreumiranda\Radioprotection_Pipeline_Project\06_Quantum_DFT_ORCA\CHEMBL1683055_neutral_opt.en.tmp) ****
Finished Guess after   0.2 sec
Maximum memory used throughout the entire GUESS-calculation: 28.5 MB
--------------------
CPCM SOLVATION MODEL
--------------------
CPCM parameters:
  Epsilon                                         ...      80.1510
  Refrac                                          ...       1.3328
  Rsolv                                           ...       1.3000
  Surface type                                    ... GAUSSIAN VDW
  Discretization scheme                           ... Constant charge density
    Threshold for H atoms                         ...       5.0000 (charges/Ang^2)
    Threshold for non-H atoms                     ...       5.0000 (charges/Ang^2)
  Epsilon function type                           ...         CPCM
Solvent:                                          ... WATER
Radii:
  Scheme                                          ... Element-dependent radii
  Radius for N  used is    3.5149 Bohr (=   1.8600 Ang.)
  Radius for C  used is    3.8550 Bohr (=   2.0400 Ang.)
  Radius for H  used is    2.4944 Bohr (=   1.3200 Ang.)
Calculating surface                               ...        done! (  0.0s)
Cavity surface points                             ...         3394
Cavity Volume                                     ...    2406.3842
Cavity Surface-area                               ...    1213.7284
Calculating surface distance matrix               ...        done! (  0.1s)
Performing Cholesky decomposition & store         ...        done! (  0.4s)
Overall time for CPCM initialization              ...                 0.6s

----------------------------------------D-I-I-S--------------------------------------------
Iteration    Energy (Eh)           Delta-E    RMSDP     MaxDP     DIISErr   Damp  Time(sec)
-------------------------------------------------------------------------------------------
               ***  Starting incremental Fock matrix formation  ***
    1    -1004.3314167571206781     0.00e+00  2.76e-04  8.31e-03  3.58e-02  0.700  25.9
    2    -1004.3373937004780601    -5.98e-03  2.47e-04  7.76e-03  2.86e-02  0.700  11.8
                               ***Turning on AO-DIIS***
    3    -1004.3422103341545153    -4.82e-03  2.01e-04  6.60e-03  2.16e-02  0.700  11.6
    4    -1004.3458068679078679    -3.60e-03  5.07e-04  1.70e-02  1.57e-02  0.000  11.5
                              *** Initializing SOSCF ***
---------------------------------------S-O-S-C-F--------------------------------------
Iteration    Energy (Eh)           Delta-E    RMSDP     MaxDP     MaxGrad    Time(sec)
--------------------------------------------------------------------------------------
    5    -1004.3549072510204496    -9.10e-03  3.37e-05  8.45e-04  8.65e-04    12.7
               *** Restarting incremental Fock matrix formation ***
    6    -1004.3549340686654432    -2.68e-05  2.81e-05  6.68e-04  3.73e-04    25.5
    7    -1004.3549425860414885    -8.52e-06  8.55e-06  3.40e-04  5.74e-05    17.6
    8    -1004.3549427525040301    -1.66e-07  3.49e-06  1.78e-04  4.47e-05    15.1
    9    -1004.3549429280506047    -1.76e-07  2.20e-06  9.28e-05  2.25e-05    13.3
   10    -1004.3549429359281930    -7.88e-09  1.07e-06  4.82e-05  1.85e-05    12.6
                 **** Energy Check signals convergence ****

               *****************************************************
               *                     SUCCESS                       *
               *           SCF CONVERGED AFTER  10 CYCLES          *
               *****************************************************

Recomputing exchange energy using gridx3       ... done (   40.418 sec)
Old exchange energy                            :    -27.197642173 Eh
New exchange energy                            :    -27.197676234 Eh
Exchange energy change after final integration :     -0.000034061 Eh
Total energy after final integration           :  -1004.354977014 Eh
             **** ENERGY FILE WAS UPDATED (C:\Users\jabreumiranda\Radioprotection_Pipeline_Project\06_Quantum_DFT_ORCA\CHEMBL1683055_neutral_opt.en.tmp) ****

----------------
TOTAL SCF ENERGY
----------------

Total Energy       :      -1004.35497701391000 Eh          -27329.88835 eV

Components:
Nuclear Repulsion  :       1739.06568744963261 Eh           47322.38318 eV
Electronic Energy  :      -2743.38575398439889 Eh          -74651.32157 eV
One Electron Energy:      -4815.24623703466023 Eh         -131029.51152 eV
Two Electron Energy:       2071.86048305026134 Eh           56378.18996 eV
CPCM Dielectric    :         -0.03487641775098 Eh              -0.94904 eV

Virial components:
Potential Energy   :      -1998.50674023147280 Eh          -54382.13314 eV
Kinetic Energy     :        994.15176321756280 Eh           27052.24479 eV
Virial Ratio       :          2.01026323562846

DFT components:
N(Alpha)           :       80.999962745649 electrons
N(Beta)            :       80.999962745649 electrons
N(Total)           :      161.999925491298 electrons
E(X)               :     -108.105431006618 Eh       
E(C)               :       -6.528961978895 Eh       
E(XC)              :     -114.634392985513 Eh       

CPCM Solvation Model Properties:
Surface-charge          :         -0.02724344935207
Corrected charge        :          0.00000000000000
Outlying charge corr.   :          0.00003739500693 Eh               0.00102 eV
Free-energy (cav+disp)  :  This term is not implemented in the current solvation scheme

---------------
SCF CONVERGENCE
---------------

  Last Energy change         ...    7.8776e-09  Tolerance :   1.0000e-08
  Last MAX-Density change    ...    4.8193e-05  Tolerance :   1.0000e-07
  Last RMS-Density change    ...    1.0686e-06  Tolerance :   5.0000e-09
  Last DIIS Error            ...    8.6477e-04  Tolerance :   5.0000e-07
  Last Orbital Gradient      ...    1.8482e-05  Tolerance :   1.0000e-05
  Last Orbital Rotation      ...    4.4055e-05  Tolerance :   1.0000e-05


Total SCF time: 0 days 0 hours 3 min 29 sec 
Finished LeanSCF after 209.8 sec

Maximum memory used throughout the entire LEANSCF-calculation: 111.5 MB

------------------------------------------------------------------------------
                         ORCA PROPERTY INTEGRAL CALCULATIONS
------------------------------------------------------------------------------

GBWName                                   ... C:\Users\jabreumiranda\Radioprotection_Pipeline_Project\06_Quantum_DFT_ORCA\CHEMBL1683055_neutral_opt.gbw
Number of atoms                           ...     37
Number of basis functions                 ...    401
Max core memory                           ...   2000 MB

Dipole integrals                          ... YES
Quadrupole integrals                      ...  NO
Linear momentum integrals                 ...  NO
Angular momentum integrals                ...  NO
Higher moments length integrals           ...  NO
Higher moments velocity integrals         ...  NO
Kinetic energy integrals                  ...  NO
GIAO right hand sides                     ...  NO
GIAO dipole derivative integrals          ...  NO
SOC integrals                             ...  NO
EPR diamagnetic integrals (GIAO)          ...  NO
EPR gauge integrals                       ...  NO
Field gradient integrals                  ...  NO (   0 nuclei)
Spin-dipole/Fermi contact integrals       ...  NO (   0 nuclei)
Contact density integrals                 ...  NO (   0 nuclei)
Nucleus-orbit integrals                   ...  NO (   0 nuclei)
Geometric perturbations                   ...  NO (  37 nuclei)

Choice of electric origin   ... Center of mass
Position of electric origin ... (  0.0595,  0.0375,  0.0470) 
Choice of magnetic origin   ... GIAO
Position of magnetic origin ... (  0.0000,  0.0000,  0.0000) 

Calculating integrals                     ... Electric Dipole (Length)     done (  0.0 sec)

Property integrals calculated in   0.0 sec

Maximum memory used throughout the entire PROPINT-calculation: 26.9 MB


-------------------------------------------------------------------------------
                          DFT DISPERSION CORRECTION                            
                                                                               
                              DFTD3 V3.1  Rev 1                                
                          USING Becke-Johnson damping                          
-------------------------------------------------------------------------------
-------------------------   ----------------
Dispersion correction           -0.088061607
-------------------------   ----------------


-------------------------   --------------------
FINAL SINGLE POINT ENERGY     -1004.443038620647
-------------------------   --------------------

------------------------------------------------------------------------------
                         ORCA SCF GRADIENT CALCULATION
------------------------------------------------------------------------------

Nuc. rep. gradient        (SHARK) ... done (  0.0 sec)
HCore & Overlap gradient  (SHARK) ... done (  1.1 sec)
Split-RIJ-J gradient      (SHARK) ... done (  6.9 sec)
COSX-gradient                     ... done ( 97.8 sec)
XC gradient                       ... done ( 18.1 sec)
CPCM gradient                     ... done (  6.0 sec)
Dispersion correction             ... done (  0.1 sec)

-------------------
DISPERSION GRADIENT
-------------------

   1   N   :    0.000462394   -0.000209782   -0.000114768
   2   C   :   -0.002630744    0.001885623    0.000814985
   3   N   :    0.000022962   -0.000108740   -0.000015004
   4   C   :    0.001203822   -0.002295869   -0.000635395
   5   C   :    0.000197138    0.000324503    0.000003202
   6   C   :    0.000557092    0.000191507   -0.000104678
   7   C   :    0.000429166   -0.000124835   -0.000113861
   8   C   :   -0.000181766    0.000036344    0.000060971
   9   C   :   -0.000251701    0.000214810    0.000307917
  10   C   :   -0.000061643    0.000337387    0.000384692
  11   C   :   -0.000415133   -0.000143895   -0.000083451
  12   N   :   -0.000135682    0.000228351    0.000258008
  13   C   :    0.000371433    0.000109519    0.000052885
  14   C   :   -0.000429229    0.000142191    0.000216609
  15   C   :   -0.000369448   -0.000010115    0.000049027
  16   C   :   -0.000266824   -0.000201879   -0.000166794
  17   C   :   -0.000167536   -0.000339032   -0.000325698
  18   C   :    0.000340763    0.000135162    0.000085969
  19   N   :    0.000099861   -0.000216840   -0.000249378
  20   C   :   -0.000589315   -0.000083763   -0.000025113
  21   C   :   -0.000118449   -0.000115316   -0.000161862
  22   C   :    0.000135530   -0.000152528   -0.000013000
  23   C   :    0.001821304    0.000182586   -0.000270217
  24   N   :    0.000163318    0.000386467    0.000052931
  25   H   :    0.000206054   -0.000051957   -0.000054361
  26   H   :    0.000172748   -0.000147691   -0.000084077
  27   H   :    0.000123663    0.000298305    0.000029446
  28   H   :    0.000106250    0.000345759    0.000015848
  29   H   :   -0.000018489    0.000233045    0.000282829
  30   H   :   -0.000023498    0.000225455    0.000239987
  31   H   :   -0.000205456    0.000152496    0.000191470
  32   H   :   -0.000276805    0.000009929    0.000055006
  33   H   :   -0.000182047   -0.000163766   -0.000140682
  34   H   :   -0.000003008   -0.000221857   -0.000230272
  35   H   :   -0.000046438   -0.000193520   -0.000245010
  36   H   :   -0.000023892   -0.000322856   -0.000019936
  37   H   :   -0.000016391   -0.000335197   -0.000048228

Difference to translation invariance:
           :    0.0000000000    0.0000000000    0.0000000000

Difference to rotation invariance:
           :    0.0000000000   -0.0000000000   -0.0000000000

Norm of the Dispersion gradient    ...    0.0051598472
RMS gradient                       ...    0.0004897510
MAX gradient                       ...    0.0026307443

------------------
CARTESIAN GRADIENT
------------------

   1   N   :    0.000174405   -0.001197644    0.000680522
   2   C   :   -0.000399882    0.001420239    0.000074646
   3   N   :    0.001227694    0.000272287   -0.000772896
   4   C   :   -0.000826260    0.000981519    0.000654129
   5   C   :   -0.000164292    0.000239610    0.000021036
   6   C   :   -0.000566347    0.000401490   -0.000445297
   7   C   :    0.002810061   -0.001389990   -0.001134143
   8   C   :   -0.002995302   -0.000246912    0.000218017
   9   C   :    0.000254058   -0.000388346    0.000454448
  10   C   :    0.000112011    0.000457889    0.000479899
  11   C   :   -0.000533307    0.000597487    0.000709386
  12   N   :   -0.000621404    0.000026018    0.000141734
  13   C   :    0.000720996    0.001402687    0.001351220
  14   C   :   -0.000977256    0.000086521    0.000243338
  15   C   :    0.000265520    0.000655779    0.000638338
  16   C   :    0.000737669   -0.000354492   -0.000485727
  17   C   :   -0.000395788   -0.000514120   -0.000470064
  18   C   :    0.001250950   -0.000737774   -0.000963686
  19   N   :    0.000196252   -0.000087937   -0.000178763
  20   C   :   -0.001245026   -0.001127040   -0.000845388
  21   C   :    0.001936488    0.000230427   -0.001280086
  22   C   :   -0.001236649    0.000238599    0.000944205
  23   C   :    0.000246701   -0.000383908   -0.000106119
  24   N   :   -0.000751649   -0.001350841    0.000163866
  25   H   :    0.000143595   -0.000130053    0.000101270
  26   H   :    0.000533455    0.000337963   -0.000900608
  27   H   :    0.000122741    0.000121104   -0.000035185
  28   H   :   -0.000429417    0.000144256    0.000305551
  29   H   :    0.000000070    0.000475149    0.000198020
  30   H   :    0.000797733    0.000292854    0.000231343
  31   H   :   -0.000836589   -0.000217335   -0.000100580
  32   H   :   -0.000007195    0.000510212    0.000536142
  33   H   :    0.000459800   -0.000359657   -0.000438301
  34   H   :   -0.000799689   -0.000334555   -0.000214432
  35   H   :    0.001252945    0.000147254    0.000191898
  36   H   :   -0.000515331   -0.000031973   -0.000113882
  37   H   :    0.000058243   -0.000186767    0.000146149

Difference to translation invariance:
           :    0.0000000001    0.0000000000    0.0000000000

Difference to rotation invariance:
           :    0.0002418860   -0.0004104961    0.0005736462

Norm of the Cartesian gradient     ...    0.0079985797
RMS gradient                       ...    0.0007591916
MAX gradient                       ...    0.0029953022

-------
TIMINGS
-------

Total SCF gradient time     ....      130.052 sec

Densities                   ....       0.005 sec  (  0.0%)
One electron gradient       ....       1.144 sec  (  0.9%)
RI-J Coulomb gradient       ....       6.892 sec  (  5.3%)
COSX gradient               ....      97.817 sec  ( 75.2%)
XC gradient                 ....      18.063 sec  ( 13.9%)
CPCM gradient               ....       6.023 sec  (  4.6%)
   A-Matrix (El+Nuc)        ....       0.620 sec  (  0.5%)
   Potential                ....       5.403 sec  (  4.2%)

Maximum memory used throughout the entire SCFGRAD-calculation: 59.4 MB
------------------------------------------------------------------------------
                         ORCA GEOMETRY RELAXATION STEP
------------------------------------------------------------------------------

Reading the OPT-File                    .... done
Getting information on internals        .... done
Copying old internal coords+grads       .... done
Making the new internal coordinates     .... (2022 redundants) done
Validating the new internal coordinates .... (2022 redundants) done
Calculating the B-matrix                .... done
Calculating the G,G- and P matrices     .... done
Transforming gradient to internals      .... done
Projecting the internal gradient        .... done
Number of atoms                         ....  37
Number of internal coordinates          .... 207
Current Energy                          .... -1004.443038621 Eh
Current gradient norm                   ....     0.007998580 Eh/bohr
Maximum allowed component of the step   ....  0.300
Current trust radius                    ....  0.675
Updating the Hessian (BFGS)             .... done
Forming the augmented Hessian           .... done
Diagonalizing the augmented Hessian     .... done
Last element of RFO vector              ....  0.988481082
Lowest eigenvalues of augmented Hessian:
 -0.000341761  0.008974405  0.020641522  0.021533574  0.023506871
Length of the computed step             ....  0.153108118
The final length of the internal step   ....  0.153108118
Converting the step to Cartesian space:
 Initial RMS(Int)=    0.0106417498
Transforming coordinates:
 Iter   0:  RMS(Cart)=    0.0590848796 RMS(Int)=    0.6176614467
done
Storing new coordinates                 .... done
The predicted energy change is          ....    -0.000174886
Previously predicted energy change      ....    -0.000573452
Actually observed energy change         ....    -0.000700539
Ratio of predicted to observed change   ....     1.221617873
New trust radius                        ....     0.700000000

                                .--------------------.
          ----------------------|Geometry convergence|-------------------------
          Item                value                   Tolerance       Converged
          ---------------------------------------------------------------------
          Energy change      -0.0007005393            0.0000050000      NO
          RMS gradient        0.0005337087            0.0001000000      NO
          MAX gradient        0.0024534879            0.0003000000      NO
          RMS step            0.0106417498            0.0020000000      NO
          MAX step            0.0724498274            0.0040000000      NO
          -------------------------------------------------------------------------
          ........................................................
          Max(Bonds)      0.0024      Max(Angles)    0.43
          Max(Dihed)        4.15      Max(Improp)    0.00
          ---------------------------------------------------------------------

The optimization has not yet converged - more geometry cycles are needed


    ---------------------------------------------------------------------------
                         Redundant Internal Coordinates
                            (Angstroem and degrees)

        Definition                    Value    dE/dq     Step     New-Value
    ----------------------------------------------------------------------------
     1. B(C   1,N   0)                1.3616  0.001259 -0.0009    1.3607   
     2. B(N   2,C   1)                1.3254  0.000458 -0.0001    1.3252   
     3. B(C   3,N   2)                1.3853  0.001090 -0.0012    1.3841   
     4. B(C   4,C   3)                1.4021  0.000447 -0.0007    1.4014   
     5. B(C   5,C   4)                1.3965 -0.000091 -0.0001    1.3964   
     6. B(C   6,C   5)                1.4167 -0.000320  0.0008    1.4174   
     7. B(C   7,C   6)                1.4834  0.000517 -0.0006    1.4828   
     8. B(C   8,C   7)                1.4412  0.000036  0.0017    1.4429   
     9. B(C   9,C   8)                1.3689 -0.000559 -0.0004    1.3685   
    10. B(C  10,C   9)                1.4322  0.001181  0.0002    1.4324   
    11. B(N  11,C  10)                1.3376  0.000331 -0.0010    1.3367   
    12. B(C  12,N  11)                1.3415 -0.000234 -0.0001    1.3414   
    13. B(C  13,C  12)                1.4314  0.001188  0.0000    1.4315   
    14. B(C  14,C  13)                1.3727 -0.000762  0.0000    1.3728   
    15. B(C  15,C  14)                1.4307  0.001312 -0.0001    1.4306   
    16. B(C  16,C  15)                1.3726 -0.000743 -0.0000    1.3726   
    17. B(C  17,C  16)                1.4320  0.001033  0.0003    1.4323   
    18. B(C  17,C  12)                1.4530  0.002453 -0.0024    1.4506   
    19. B(N  18,C  17)                1.3404 -0.000065 -0.0003    1.3401   
    20. B(C  19,N  18)                1.3411 -0.000155 -0.0002    1.3409   
    21. B(C  19,C  10)                1.4530  0.002342 -0.0022    1.4508   
    22. B(C  20,C  19)                1.4281  0.001546 -0.0006    1.4274   
    23. B(C  20,C   7)                1.3816 -0.001488  0.0012    1.3828   
    24. B(C  21,C   6)                1.4099 -0.001192  0.0018    1.4117   
    25. B(C  22,C  21)                1.3896  0.000445 -0.0010    1.3886   
    26. B(C  22,C   3)                1.4265  0.001180 -0.0004    1.4261   
    27. B(N  23,C  22)                1.3864  0.000445 -0.0002    1.3862   
    28. B(N  23,C   1)                1.3777  0.001055 -0.0014    1.3763   
    29. B(H  24,N   0)                1.0155  0.000019 -0.0001    1.0154   
    30. B(H  25,N   0)                1.0161  0.000138 -0.0002    1.0159   
    31. B(H  26,C   4)                1.0928  0.000165 -0.0002    1.0926   
    32. B(H  27,C   5)                1.0925  0.000385 -0.0008    1.0917   
    33. B(H  28,C   8)                1.0921  0.000374 -0.0008    1.0913   
    34. B(H  29,C   9)                1.0922  0.000070 -0.0001    1.0922   
    35. B(H  30,C  13)                1.0923  0.000071 -0.0001    1.0922   
    36. B(H  31,C  14)                1.0930  0.000130 -0.0002    1.0928   
    37. B(H  32,C  15)                1.0931  0.000129 -0.0001    1.0929   
    38. B(H  33,C  16)                1.0923  0.000075 -0.0001    1.0922   
    39. B(H  34,C  20)                1.0914  0.000172 -0.0004    1.0910   
    40. B(H  35,C  21)                1.0917  0.000309 -0.0006    1.0911   
    41. B(H  36,N  23)                1.0147  0.000155 -0.0001    1.0146   
    42. A(C   1,N   0,H  24)          114.91 -0.000058    0.13    115.04   
    43. A(H  24,N   0,H  25)          114.00 -0.000519    0.39    114.39   
    44. A(C   1,N   0,H  25)          117.66  0.000406   -0.15    117.50   
    45. A(N   2,C   1,N  23)          113.03  0.000451   -0.04    112.99   
    46. A(N   0,C   1,N  23)          121.57 -0.000293    0.09    121.65   
    47. A(N   0,C   1,N   2)          125.33 -0.000161   -0.06    125.27   
    48. A(C   1,N   2,C   3)          105.09 -0.000123    0.01    105.09   
    49. A(N   2,C   3,C  22)          110.18 -0.000310    0.04    110.22   
    50. A(C   4,C   3,C  22)          119.04  0.000333   -0.10    118.95   
    51. A(N   2,C   3,C   4)          130.77 -0.000023    0.06    130.83   
    52. A(C   3,C   4,C   5)          118.52 -0.000334    0.07    118.59   
    53. A(C   5,C   4,H  26)          121.00  0.000218   -0.06    120.94   
    54. A(C   3,C   4,H  26)          120.48  0.000115   -0.01    120.47   
    55. A(C   4,C   5,C   6)          122.08 -0.000477    0.12    122.20   
    56. A(C   4,C   5,H  27)          118.96  0.000581   -0.09    118.88   
    57. A(C   6,C   5,H  27)          118.94 -0.000103   -0.03    118.91   
    58. A(C   5,C   6,C   7)          120.17 -0.000896    0.17    120.34   
    59. A(C   5,C   6,C  21)          119.84  0.001511   -0.29    119.55   
    60. A(C   7,C   6,C  21)          119.99 -0.000614    0.12    120.11   
    61. A(C   8,C   7,C  20)          118.81  0.001658   -0.28    118.53   
    62. A(C   6,C   7,C  20)          121.23 -0.001537    0.35    121.58   
    63. A(C   6,C   7,C   8)          119.96 -0.000121   -0.07    119.89   
    64. A(C   7,C   8,H  28)          118.91  0.000346   -0.19    118.72   
    65. A(C   9,C   8,H  28)          119.28 -0.000248    0.10    119.38   
    66. A(C   7,C   8,C   9)          121.79 -0.000097    0.09    121.88   
    67. A(C  10,C   9,H  29)          118.32  0.001073   -0.32    118.00   
    68. A(C   8,C   9,H  29)          121.16 -0.000742    0.28    121.44   
    69. A(C   8,C   9,C  10)          120.51 -0.000332    0.04    120.55   
    70. A(N  11,C  10,C  19)          121.34 -0.000065    0.01    121.34   
    71. A(C   9,C  10,C  19)          118.40  0.000050   -0.06    118.34   
    72. A(C   9,C  10,N  11)          120.26  0.000016    0.05    120.32   
    73. A(C  10,N  11,C  12)          117.73 -0.000338    0.09    117.83   
    74. A(N  11,C  12,C  13)          120.02  0.000054    0.02    120.05   
    75. A(C  13,C  12,C  17)          118.95 -0.000336    0.05    119.00   
    76. A(N  11,C  12,C  17)          121.03  0.000282   -0.07    120.96   
    77. A(C  14,C  13,H  30)          121.45 -0.000827    0.30    121.76   
    78. A(C  12,C  13,C  14)          120.32 -0.000133   -0.01    120.31   
    79. A(C  12,C  13,H  30)          118.23  0.000960   -0.29    117.94   
    80. A(C  13,C  14,C  15)          120.76  0.000421   -0.03    120.73   
    81. A(C  13,C  14,H  31)          119.70 -0.000967    0.23    119.93   
    82. A(C  15,C  14,H  31)          119.54  0.000546   -0.20    119.34   
    83. A(C  16,C  15,H  32)          119.66 -0.000924    0.22    119.87   
    84. A(C  14,C  15,H  32)          119.51  0.000554   -0.20    119.31   
    85. A(C  14,C  15,C  16)          120.83  0.000370   -0.01    120.82   
    86. A(C  15,C  16,H  33)          121.45 -0.000847    0.31    121.76   
    87. A(C  17,C  16,H  33)          118.22  0.000990   -0.30    117.92   
    88. A(C  15,C  16,C  17)          120.33 -0.000143   -0.01    120.32   
    89. A(C  16,C  17,N  18)          120.01  0.000071    0.02    120.03   
    90. A(C  12,C  17,N  18)          121.17  0.000108   -0.03    121.14   
    91. A(C  12,C  17,C  16)          118.82 -0.000179    0.01    118.83   
    92. A(C  17,N  18,C  19)          117.78 -0.000380    0.11    117.89   
    93. A(N  18,C  19,C  20)          119.95  0.000123    0.02    119.97   
    94. A(C  10,C  19,C  20)          119.10 -0.000516    0.08    119.18   
    95. A(C  10,C  19,N  18)          120.95  0.000393   -0.10    120.85   
    96. A(C  19,C  20,H  34)          117.73  0.001674   -0.43    117.30   
    97. A(C   7,C  20,H  34)          120.89 -0.000909    0.29    121.18   
    98. A(C   7,C  20,C  19)          121.38 -0.000763    0.13    121.51   
    99. A(C   6,C  21,H  35)          120.96 -0.000095    0.01    120.96   
   100. A(C   6,C  21,C  22)          117.74 -0.000592    0.14    117.87   
   101. A(C  22,C  21,H  35)          121.29  0.000688   -0.15    121.15   
   102. A(C  21,C  22,N  23)          132.61  0.000041    0.01    132.63   
   103. A(C   3,C  22,N  23)          104.61  0.000401   -0.07    104.53   
   104. A(C   3,C  22,C  21)          122.78 -0.000442    0.06    122.84   
   105. A(C   1,N  23,C  22)          107.09 -0.000419    0.07    107.16   
   106. A(C  22,N  23,H  36)          126.81  0.000264   -0.05    126.76   
   107. A(C   1,N  23,H  36)          126.07  0.000153   -0.01    126.06   
   108. D(N   2,C   1,N   0,H  24)    -15.32  0.000240   -1.05    -16.37   
   109. D(N  23,C   1,N   0,H  25)     29.45  0.000728   -1.64     27.81   
   110. D(N  23,C   1,N   0,H  24)    168.02  0.000286   -1.01    167.01   
   111. D(N   2,C   1,N   0,H  25)   -153.88  0.000682   -1.68   -155.56   
   112. D(C   3,N   2,C   1,N   0)   -176.60  0.000096   -0.02   -176.62   
   113. D(C   3,N   2,C   1,N  23)      0.32  0.000033   -0.06      0.26   
   114. D(C   4,C   3,N   2,C   1)    179.50  0.000005   -0.05    179.45   
   115. D(C  22,C   3,N   2,C   1)     -0.52 -0.000051    0.12     -0.40   
   116. D(H  26,C   4,C   3,N   2)      0.45 -0.000049    0.19      0.64   
   117. D(H  26,C   4,C   3,C  22)   -179.53  0.000011    0.00   -179.52   
   118. D(C   5,C   4,C   3,C  22)      0.31  0.000029   -0.07      0.24   
   119. D(C   5,C   4,C   3,N   2)   -179.71 -0.000032    0.12   -179.59   
   120. D(H  27,C   5,C   4,C   3)   -179.27 -0.000099    0.38   -178.89   
   121. D(C   6,C   5,C   4,C   3)     -0.67 -0.000038    0.09     -0.58   
   122. D(C   6,C   5,C   4,H  26)    179.16 -0.000021    0.02    179.18   
   123. D(H  27,C   5,C   4,H  26)      0.57 -0.000081    0.31      0.88   
   124. D(C  21,C   6,C   5,H  27)    179.14  0.000100   -0.36    178.77   
   125. D(C  21,C   6,C   5,C   4)      0.54  0.000030   -0.07      0.47   
   126. D(C   7,C   6,C   5,H  27)     -0.43  0.000066   -0.19     -0.61   
   127. D(C   7,C   6,C   5,C   4)   -179.02 -0.000004    0.10   -178.92   
   128. D(C  20,C   7,C   6,C  21)    -34.25 -0.000480    4.08    -30.17   
   129. D(C   8,C   7,C   6,C  21)    145.33 -0.000495    4.15    149.49   
   130. D(C  20,C   7,C   6,C   5)    145.31 -0.000436    3.90    149.21   
   131. D(C   8,C   7,C   6,C   5)    -35.10 -0.000451    3.97    -31.13   
   132. D(H  28,C   8,C   7,C  20)    179.29  0.000110   -0.36    178.93   
   133. D(H  28,C   8,C   7,C   6)     -0.30  0.000138   -0.43     -0.73   
   134. D(C   9,C   8,C   7,C  20)      0.56  0.000062   -0.14      0.42   
   135. D(C   9,C   8,C   7,C   6)   -179.03  0.000089   -0.21   -179.24   
   136. D(H  29,C   9,C   8,C   7)    179.14 -0.000012    0.01    179.15   
   137. D(C  10,C   9,C   8,H  28)   -178.98 -0.000060    0.24   -178.74   
   138. D(C  10,C   9,C   8,C   7)     -0.25 -0.000005    0.01     -0.24   
   139. D(H  29,C   9,C   8,H  28)      0.41 -0.000067    0.24      0.65   
   140. D(C  19,C  10,C   9,H  29)   -179.47 -0.000004    0.06   -179.42   
   141. D(C  19,C  10,C   9,C   8)     -0.07 -0.000022    0.06     -0.00   
   142. D(N  11,C  10,C   9,H  29)      0.49 -0.000008    0.07      0.56   
   143. D(N  11,C  10,C   9,C   8)    179.90 -0.000026    0.07    179.97   
   144. D(C  12,N  11,C  10,C  19)     -0.26  0.000016   -0.05     -0.31   
   145. D(C  12,N  11,C  10,C   9)    179.78  0.000020   -0.06    179.71   
   146. D(C  17,C  12,N  11,C  10)     -0.05 -0.000005    0.00     -0.05   
   147. D(C  13,C  12,N  11,C  10)   -179.99 -0.000010    0.02   -179.97   
   148. D(H  30,C  13,C  12,C  17)    180.00  0.000006   -0.02    179.98   
   149. D(H  30,C  13,C  12,N  11)     -0.06  0.000010   -0.04     -0.09   
   150. D(C  14,C  13,C  12,C  17)     -0.03  0.000010   -0.03     -0.06   
   151. D(C  14,C  13,C  12,N  11)    179.92  0.000015   -0.06    179.86   
   152. D(H  31,C  14,C  13,H  30)     -0.04 -0.000002    0.00     -0.03   
   153. D(H  31,C  14,C  13,C  12)    179.99 -0.000007    0.02    180.01   
   154. D(C  15,C  14,C  13,H  30)    179.97  0.000002   -0.01    179.96   
   155. D(C  15,C  14,C  13,C  12)     -0.00 -0.000003    0.01      0.01   
   156. D(H  32,C  15,C  14,H  31)     -0.00 -0.000002    0.00      0.00   
   157. D(H  32,C  15,C  14,C  13)    179.99 -0.000006    0.02    180.01   
   158. D(C  16,C  15,C  14,H  31)   -179.99 -0.000001    0.00   -179.99   
   159. D(C  16,C  15,C  14,C  13)      0.00 -0.000005    0.01      0.02   
   160. D(H  33,C  16,C  15,H  32)     -0.00  0.000001   -0.00     -0.00   
   161. D(H  33,C  16,C  15,C  14)    179.99 -0.000000   -0.00    179.99   
   162. D(C  17,C  16,C  15,H  32)   -179.96  0.000007   -0.02   -179.98   
   163. D(C  17,C  16,C  15,C  14)      0.03  0.000006   -0.01      0.01   
   164. D(C  12,C  17,C  16,H  33)    179.98  0.000008   -0.02    179.96   
   165. D(C  12,C  17,C  16,C  15)     -0.06  0.000001   -0.01     -0.07   
   166. D(N  18,C  17,C  12,C  13)   -179.88 -0.000003    0.02   -179.86   
   167. D(N  18,C  17,C  12,N  11)      0.18 -0.000008    0.04      0.22   
   168. D(C  16,C  17,C  12,C  13)      0.06 -0.000009    0.03      0.09   
   169. D(N  18,C  17,C  16,C  15)    179.88 -0.000005    0.01    179.88   
   170. D(C  16,C  17,C  12,N  11)   -179.89 -0.000014    0.06   -179.83   
   171. D(N  18,C  17,C  16,H  33)     -0.08  0.000002   -0.01     -0.09   
   172. D(C  19,N  18,C  17,C  16)   -179.90  0.000021   -0.04   -179.94   
   173. D(C  19,N  18,C  17,C  12)      0.03  0.000014   -0.03      0.00   
   174. D(C  20,C  19,N  18,C  17)   -179.97 -0.000022    0.06   -179.91   
   175. D(C  10,C  19,N  18,C  17)     -0.34 -0.000005   -0.02     -0.37   
   176. D(C  20,C  19,C  10,N  11)   -179.89  0.000012   -0.02   -179.90   
   177. D(C  20,C  19,C  10,C   9)      0.07  0.000008   -0.01      0.07   
   178. D(N  18,C  19,C  10,N  11)      0.48 -0.000007    0.07      0.55   
   179. D(N  18,C  19,C  10,C   9)   -179.56 -0.000011    0.08   -179.48   
   180. D(H  34,C  20,C  19,N  18)      0.70 -0.000071    0.27      0.97   
   181. D(H  34,C  20,C  19,C  10)   -178.93 -0.000091    0.35   -178.58   
   182. D(C   7,C  20,C  19,N  18)    179.88  0.000054   -0.21    179.67   
   183. D(C   7,C  20,C  19,C  10)      0.24  0.000034   -0.13      0.11   
   184. D(H  34,C  20,C   7,C   8)    178.60  0.000079   -0.29    178.31   
   185. D(H  34,C  20,C   7,C   6)     -1.81  0.000057   -0.22     -2.03   
   186. D(C  19,C  20,C   7,C   8)     -0.55 -0.000071    0.20     -0.35   
   187. D(C  19,C  20,C   7,C   6)    179.04 -0.000093    0.27    179.31   
   188. D(H  35,C  21,C   6,C   7)     -1.82  0.000108   -0.47     -2.29   
   189. D(H  35,C  21,C   6,C   5)    178.61  0.000075   -0.29    178.32   
   190. D(C  22,C  21,C   6,C   7)    179.53  0.000034   -0.15    179.38   
   191. D(C  22,C  21,C   6,C   5)     -0.03  0.000001    0.03     -0.01   
   192. D(N  23,C  22,C  21,H  35)      0.62 -0.000086    0.33      0.94   
   193. D(N  23,C  22,C  21,C   6)    179.26 -0.000023    0.01    179.26   
   194. D(C   3,C  22,C  21,H  35)   -178.96 -0.000078    0.32   -178.65   
   195. D(C   3,C  22,C  21,C   6)     -0.32 -0.000015   -0.00     -0.33   
   196. D(N  23,C  22,C   3,C   4)   -179.49  0.000006    0.02   -179.48   
   197. D(N  23,C  22,C   3,N   2)      0.52  0.000055   -0.13      0.39   
   198. D(C  21,C  22,C   3,C   4)      0.19  0.000000    0.03      0.21   
   199. D(C  21,C  22,C   3,N   2)   -179.80  0.000049   -0.12   -179.92   
   200. D(H  36,N  23,C  22,C  21)     -1.67 -0.000097    0.28     -1.39   
   201. D(H  36,N  23,C  22,C   3)    177.97 -0.000106    0.28    178.25   
   202. D(C   1,N  23,C  22,C  21)   -179.95 -0.000025    0.08   -179.87   
   203. D(C   1,N  23,C  22,C   3)     -0.32 -0.000034    0.09     -0.22   
   204. D(H  36,N  23,C   1,N   2)   -178.29  0.000070   -0.21   -178.50   
   205. D(H  36,N  23,C   1,N   0)     -1.25  0.000013   -0.26     -1.50   
   206. D(C  22,N  23,C   1,N   2)      0.01  0.000001   -0.02     -0.02   
   207. D(C  22,N  23,C   1,N   0)    177.05 -0.000055   -0.07    176.99   
    ----------------------------------------------------------------------------

Geometry step timings:
Preparation and reading OPT file:      0.003 s ( 5.455 %)
Internal coordinates            :      0.000 s ( 0.000 %)
B/P matrices and projection     :      0.005 s ( 9.091 %)
Hessian update/contruction      :      0.041 s (74.545 %)
Making the step                 :      0.002 s ( 3.636 %)
Converting the step to Cartesian:      0.001 s ( 1.818 %)
Storing new data                :      0.000 s ( 0.000 %)
Checking convergence            :      0.000 s ( 0.000 %)
Final printing                  :      0.003 s ( 5.455 %)
Total time                      :      0.055 s

Time for energy+gradient        :    345.773 s
Time for complete geometry iter :    346.005 s

         *************************************************************
         *                GEOMETRY OPTIMIZATION CYCLE   5            *
         *************************************************************
---------------------------------
CARTESIAN COORDINATES (ANGSTROEM)
---------------------------------
  N      7.092657   -1.703567   -1.165415
  C      5.985961   -0.966858   -0.875816
  N      5.981351    0.326852   -0.588625
  C      4.662970    0.625211   -0.290760
  C      4.060558    1.831030    0.092706
  C      2.686722    1.841733    0.342734
  C      1.885749    0.679940    0.209503
  C      0.426017    0.743581    0.462424
  C     -0.095780    1.676751    1.431438
  C     -1.433477    1.759312    1.707950
  C     -2.370503    0.913629    1.030821
  N     -3.676028    0.997815    1.305027
  C     -4.509705    0.186347    0.637314
  C     -5.917225    0.237149    0.893099
  C     -6.775510   -0.588874    0.210833
  C     -6.281389   -1.511864   -0.764082
  C     -4.939019   -1.592727   -1.039018
  C     -4.007806   -0.750138   -0.350264
  N     -2.698283   -0.835601   -0.621566
  C     -1.864740   -0.027397    0.049258
  C     -0.461275   -0.079858   -0.205947
  C      2.484801   -0.537964   -0.178845
  C      3.852960   -0.541792   -0.416369
  N      4.738182   -1.541184   -0.789477
  H      7.917600   -1.163087   -1.407037
  H      6.964376   -2.544251   -1.721232
  H      4.656194    2.741912    0.189051
  H      2.209392    2.782386    0.623892
  H      0.603374    2.315770    1.973531
  H     -1.819140    2.458844    2.452759
  H     -6.276233    0.948361    1.640274
  H     -7.848973   -0.544832    0.410818
  H     -6.985490   -2.158569   -1.293715
  H     -4.545104   -2.291817   -1.779985
  H     -0.116945   -0.781911   -0.966833
  H      1.895015   -1.452153   -0.262094
  H      4.518745   -2.519282   -0.946252

----------------------------
CARTESIAN COORDINATES (A.U.)
----------------------------
  NO LB      ZA    FRAG     MASS         X           Y           Z
   0 N     7.0000    0    14.007   13.403179   -3.219274   -2.202314
   1 C     6.0000    0    12.011   11.311828   -1.827097   -1.655052
   2 N     7.0000    0    14.007   11.303115    0.617661   -1.112340
   3 C     6.0000    0    12.011    8.811737    1.181478   -0.549457
   4 C     6.0000    0    12.011    7.673342    3.460146    0.175190
   5 C     6.0000    0    12.011    5.077169    3.480371    0.647673
   6 C     6.0000    0    12.011    3.563550    1.284900    0.395903
   7 C     6.0000    0    12.011    0.805055    1.405165    0.873854
   8 C     6.0000    0    12.011   -0.180998    3.168601    2.705026
   9 C     6.0000    0    12.011   -2.708879    3.324618    3.227557
  10 C     6.0000    0    12.011   -4.479602    1.726509    1.947969
  11 N     7.0000    0    14.007   -6.946686    1.885597    2.466144
  12 C     6.0000    0    12.011   -8.522107    0.352145    1.204349
  13 C     6.0000    0    12.011  -11.181935    0.448146    1.687712
  14 C     6.0000    0    12.011  -12.803857   -1.112811    0.398416
  15 C     6.0000    0    12.011  -11.870106   -2.857009   -1.443906
  16 C     6.0000    0    12.011   -9.333393   -3.009817   -1.963460
  17 C     6.0000    0    12.011   -7.573656   -1.417555   -0.661902
  18 N     7.0000    0    14.007   -5.099016   -1.579057   -1.174589
  19 C     6.0000    0    12.011   -3.523847   -0.051773    0.093085
  20 C     6.0000    0    12.011   -0.871684   -0.150910   -0.389184
  21 C     6.0000    0    12.011    4.695593   -1.016604   -0.337968
  22 C     6.0000    0    12.011    7.281039   -1.023839   -0.786824
  23 N     7.0000    0    14.007    8.953867   -2.912416   -1.491896
  24 H     1.0000    0     1.008   14.962095   -2.197915   -2.658915
  25 H     1.0000    0     1.008   13.160764   -4.807938   -3.252658
  26 H     1.0000    0     1.008    8.798931    5.181463    0.357255
  27 H     1.0000    0     1.008    4.175146    5.257948    1.178986
  28 H     1.0000    0     1.008    1.140212    4.376171    3.729433
  29 H     1.0000    0     1.008   -3.437677    4.646542    4.635042
  30 H     1.0000    0     1.008  -11.860362    1.792143    3.099670
  31 H     1.0000    0     1.008  -14.832409   -1.029583    0.776333
  32 H     1.0000    0     1.008  -13.200663   -4.079104   -2.444767
  33 H     1.0000    0     1.008   -8.589002   -4.330907   -3.363684
  34 H     1.0000    0     1.008   -0.220994   -1.477597   -1.827049
  35 H     1.0000    0     1.008    3.581060   -2.744172   -0.495285
  36 H     1.0000    0     1.008    8.539191   -4.760753   -1.788157

--------------------------------
INTERNAL COORDINATES (ANGSTROEM)
--------------------------------
 N      0   0   0     0.000000000000     0.00000000     0.00000000
 C      1   0   0     1.360654889732     0.00000000     0.00000000
 N      2   1   0     1.325211541724   125.27636127     0.00000000
 C      3   2   1     1.384149126593   105.09259614   183.38104452
 C      4   3   2     1.401409370715   130.82804487   179.44800740
 C      5   4   3     1.396442879564   118.58681072   180.40703128
 C      6   5   4     1.417416940208   122.19709062   359.41677804
 C      7   6   5     1.482847890624   120.33624036   181.08196839
 C      8   7   6     1.442937233193   119.88651909   328.86791259
 C      9   8   7     1.368469092234   121.88396706   180.75391631
 C     10   9   8     1.432375871253   120.55243710   359.75872011
 N     11  10   9     1.336664172130   120.31635672   179.96925818
 C     12  11  10     1.341393950485   117.82717999   179.71287885
 C     13  12  11     1.431475158102   120.04537890   180.03023070
 C     14  13  12     1.372753678445   120.30499905   179.86248633
 C     15  14  13     1.430567899152   120.72897695     0.00000000
 C     16  15  14     1.372620983230   120.81718223     0.00000000
 C     17  16  15     1.432304596534   120.32119444     0.00000000
 N     18  17  16     1.340059510902   120.03055285   179.88256960
 C     19  18  17     1.340892731874   117.88789760   180.05560656
 C      8   7   6     1.382772142945   121.57892068   149.21245184
 C      7   6   5     1.411724514558   119.55026753     0.46817134
 C     22   7   6     1.388629345577   117.87323308     0.00000000
 N      2   1   3     1.376320546870   121.65521118   183.37752624
 H      1   2   3     1.015396951314   115.03965840   343.63126328
 H      1   2   3     1.015942734046   117.50183066   204.43578885
 H      5   4   3     1.092597993570   120.47194040     0.63923100
 H      6   5   4     1.091660535960   118.87431344   181.11166390
 H      9   8   7     1.091341354487   118.72350774   359.26538730
 H     10   9   8     1.092163975144   121.44069266   179.15056299
 H     14  13  12     1.092236894585   117.93917868   359.90615263
 H     15  14  13     1.092820544496   119.93064290   180.01179731
 H     16  15  14     1.092929626833   119.30774684   180.00762927
 H     17  16  15     1.092212139768   121.75591549   179.98593072
 H     21   8   7     1.091049174114   121.18211452   357.96206923
 H     22   7   6     1.091109219765   120.95987199   178.31895755
 H     24   2   1     1.014596372263   126.06247703   358.49960992

---------------------------
INTERNAL COORDINATES (A.U.)
---------------------------
 N      0   0   0     0.000000000000     0.00000000     0.00000000
 C      1   0   0     2.571265104374     0.00000000     0.00000000
 N      2   1   0     2.504286883371   125.27636127     0.00000000
 C      3   2   1     2.615662777767   105.09259614   183.38104452
 C      4   3   2     2.648279912162   130.82804487   179.44800740
 C      5   4   3     2.638894604040   118.58681072   180.40703128
 C      6   5   4     2.678529834573   122.19709062   359.41677804
 C      7   6   5     2.802176411542   120.33624036   181.08196839
 C      8   7   6     2.726756199173   119.88651909   328.86791259
 C      9   8   7     2.586031807058   121.88396706   180.75391631
 C     10   9   8     2.706798117505   120.55243710   359.75872011
 N     11  10   9     2.525929218351   120.31635672   179.96925818
 C     12  11  10     2.534867204116   117.82717999   179.71287885
 C     13  12  11     2.705096016325   120.04537890   180.03023070
 C     14  13  12     2.594128501593   120.30499905   179.86248633
 C     15  14  13     2.703381545377   120.72897695     0.00000000
 C     16  15  14     2.593877743979   120.81718223     0.00000000
 C     17  16  15     2.706663427806   120.32119444     0.00000000
 N     18  17  16     2.532345478761   120.03055285   179.88256960
 C     19  18  17     2.533920038208   117.88789760   180.05560656
 C      8   7   6     2.613060655782   121.57892068   149.21245184
 C      7   6   5     2.667772709058   119.55026753     0.46817134
 C     22   7   6     2.624129164667   117.87323308     0.00000000
 N      2   1   3     2.600868906074   121.65521118   183.37752624
 H      1   2   3     1.918822155201   115.03965840   343.63126328
 H      1   2   3     1.919853535094   117.50183066   204.43578885
 H      5   4   3     2.064710982318   120.47194040     0.63923100
 H      6   5   4     2.062939444173   118.87431344   181.11166390
 H      9   8   7     2.062336278603   118.72350774   359.26538730
 H     10   9   8     2.063890806358   121.44069266   179.15056299
 H     14  13  12     2.064028604130   117.93917868   359.90615263
 H     15  14  13     2.065131542621   119.93064290   180.01179731
 H     16  15  14     2.065337678362   119.30774684   180.00762927
 H     17  16  15     2.063981824306   121.75591549   179.98593072
 H     21   8   7     2.061784137717   121.18211452   357.96206923
 H     22   7   6     2.061897607553   120.95987199   178.31895755
 H     24   2   1     1.917309280046   126.06247703   358.49960992

------------------------------------------------------------------------------
                   ___                                                        
                  /   \      - P O W E R E D   B Y -                         
                 /     \                                                     
                 |  |  |   _    _      __       _____    __    __             
                 |  |  |  | |  | |    /  \     |  _  \  |  |  /  |          
                  \  \/   | |  | |   /    \    | | | |  |  | /  /          
                 / \  \   | |__| |  /  /\  \   | |_| |  |  |/  /          
                |  |  |   |  __  | /  /__\  \  |    /   |      \           
                |  |  |   | |  | | |   __   |  |    \   |  |\   \          
                \     /   | |  | | |  |  |  |  | |\  \  |  | \   \       
                 \___/    |_|  |_| |__|  |__|  |_| \__\ |__|  \__/        
                                                                              
                      - O R C A' S   B I G   F R I E N D -                    
                                      &                                       
                       - I N T E G R A L  F E E D E R -                       
                                                                              
 v1 FN, 2020, v2 2021, v3 2022-2024                                           
------------------------------------------------------------------------------


----------------------
SHARK INTEGRAL PACKAGE
----------------------

Number of atoms                             ...     37
Number of basis functions                   ...    401
Number of shells                            ...    183
Maximum angular momentum                    ...      2
Integral batch strategy                     ... SHARK/LIBINT Hybrid
RI-J (if used) integral strategy            ... SPLIT-RIJ (Revised 2003 algorithm where possible)
Printlevel                                  ...      1
Contraction scheme used                     ... SEGMENTED contraction
Prescreening option                         ... SCHWARTZ
   Thresh                                   ... 2.500e-11
   Tcut                                     ... 2.500e-12
   Tpresel                                  ... 2.500e-12 
Coulomb Range Separation                    ... NOT USED
Exchange Range Separation                   ... NOT USED
Multipole approximations                    ... NOT USED
Finite Nucleus Model                        ... NOT USED
CABS basis                                  ... NOT available
Auxiliary Coulomb fitting basis             ... AVAILABLE
   # of basis functions in Aux-J            ...   1319
   # of shells in Aux-J                     ...    425
   Maximum angular momentum in Aux-J        ...      4
Auxiliary J/K fitting basis                 ... NOT available
Auxiliary Correlation fitting basis         ... NOT available
Auxiliary 'external' fitting basis          ... NOT available

Checking pre-screening integrals            ... done (  0.0 sec) Dimension = 183
   => SHARK Basis and OBASIS are compatible. Storing Pre-screening
Shell pair information
Shell pair cut-off parameter TPreSel        ...   2.5e-12
Total number of shell pairs                 ...     16836
Shell pairs after pre-screening             ...     10514
Total number of primitive shell pairs       ...     62832
Primitive shell pairs kept                  ...     25463
          la=0 lb=0:   3068 shell pairs
          la=1 lb=0:   3841 shell pairs
          la=1 lb=1:   1261 shell pairs
          la=2 lb=0:   1325 shell pairs
          la=2 lb=1:    862 shell pairs
          la=2 lb=2:    157 shell pairs

Checking whether 4 symmetric matrices of dimension 401 fit in memory
:Max Core in MB      =   2000.00
 MB in use           =     15.17
 MB left             =   1984.83
 MB needed           =      2.46
 Data fit in memory  = YES
Calculating RI/J V-Matrix + Cholesky decomp.... done (  0.1 sec)
Calculating Nuclear repulsion               ... done (  0.0 sec) ENN=   1739.125148027397 Eh

Diagonalization of the overlap matrix:
Smallest eigenvalue                        ... 2.185e-04
Time for diagonalization                   ...    0.016 sec
Threshold for overlap eigenvalues          ... 1.000e-07
Number of eigenvalues below threshold      ... 0
Time for construction of square roots      ...    0.012 sec
Total time needed                          ...    0.029 sec

-------------------
DFT GRID GENERATION
-------------------

General Integration Accuracy     IntAcc      ... 4.388
Radial Grid Type                 RadialGrid  ... OptM3 with GC (2021)
Angular Grid (max. ang.)         AngularGrid ... 4 (Lebedev-302)
Angular grid pruning method      GridPruning ... 4 (adaptive)
Weight generation scheme         WeightScheme... mBecke (2022)
Basis function cutoff            BFCut       ... 1.0000e-11
Integration weight cutoff        WCut        ... 1.0000e-14
Partially contracted basis set               ... off
Rotationally invariant grid construction     ... off
Angular grids for H and He will be reduced by one unit

Total number of grid points                  ...   185200
Total number of batches                      ...     2910
Average number of points per batch           ...       63
Average number of grid points per atom       ...     5005

--------------------
COSX GRID GENERATION
--------------------

GRIDX 1
-------
General Integration Accuracy     IntAcc      ... 3.816
Radial Grid Type                 RadialGrid  ... OptM3 with GC (2021)
Angular Grid (max. ang.)         AngularGrid ... 1 (Lebedev-50)
Angular grid pruning method      GridPruning ... 4 (adaptive)
Weight generation scheme         WeightScheme... mBecke (2022)
Basis function cutoff            BFCut       ... 1.0000e-11
Integration weight cutoff        WCut        ... 1.0000e-14
Partially contracted basis set               ... on
Rotationally invariant grid construction     ... off
Angular grids for H and He will be reduced by one unit

Total number of grid points                  ...    23515
Total number of batches                      ...      201
Average number of points per batch           ...      116
Average number of grid points per atom       ...      636
UseSFitting                                  ... on

GRIDX 2
-------
General Integration Accuracy     IntAcc      ... 4.020
Radial Grid Type                 RadialGrid  ... OptM3 with GC (2021)
Angular Grid (max. ang.)         AngularGrid ... 2 (Lebedev-110)
Angular grid pruning method      GridPruning ... 4 (adaptive)
Weight generation scheme         WeightScheme... mBecke (2022)
Basis function cutoff            BFCut       ... 1.0000e-11
Integration weight cutoff        WCut        ... 1.0000e-14
Partially contracted basis set               ... on
Rotationally invariant grid construction     ... off
Angular grids for H and He will be reduced by one unit

Total number of grid points                  ...    52164
Total number of batches                      ...      426
Average number of points per batch           ...      122
Average number of grid points per atom       ...     1410
UseSFitting                                  ... on

GRIDX 3
-------
General Integration Accuracy     IntAcc      ... 4.338
Radial Grid Type                 RadialGrid  ... OptM3 with GC (2021)
Angular Grid (max. ang.)         AngularGrid ... 3 (Lebedev-194)
Angular grid pruning method      GridPruning ... 4 (adaptive)
Weight generation scheme         WeightScheme... mBecke (2022)
Basis function cutoff            BFCut       ... 1.0000e-11
Integration weight cutoff        WCut        ... 1.0000e-14
Partially contracted basis set               ... on
Rotationally invariant grid construction     ... off
Angular grids for H and He will be reduced by one unit

Total number of grid points                  ...   114480
Total number of batches                      ...      914
Average number of points per batch           ...      125
Average number of grid points per atom       ...     3094
UseSFitting                                  ... on
Grids setup in   5.7 sec
Initializing property integral containers    ... done (  0.0 sec)

SHARK setup successfully completed in   6.2 seconds

Maximum memory used throughout the entire STARTUP-calculation: 77.0 MB
Occupation numbers will be reassigned to an Aufbau configuration
             **** ENERGY FILE WAS UPDATED (C:\Users\jabreumiranda\Radioprotection_Pipeline_Project\06_Quantum_DFT_ORCA\CHEMBL1683055_neutral_opt.en.tmp) ****
Finished Guess after   0.2 sec
Maximum memory used throughout the entire GUESS-calculation: 28.5 MB
--------------------
CPCM SOLVATION MODEL
--------------------
CPCM parameters:
  Epsilon                                         ...      80.1510
  Refrac                                          ...       1.3328
  Rsolv                                           ...       1.3000
  Surface type                                    ... GAUSSIAN VDW
  Discretization scheme                           ... Constant charge density
    Threshold for H atoms                         ...       5.0000 (charges/Ang^2)
    Threshold for non-H atoms                     ...       5.0000 (charges/Ang^2)
  Epsilon function type                           ...         CPCM
Solvent:                                          ... WATER
Radii:
  Scheme                                          ... Element-dependent radii
  Radius for N  used is    3.5149 Bohr (=   1.8600 Ang.)
  Radius for C  used is    3.8550 Bohr (=   2.0400 Ang.)
  Radius for H  used is    2.4944 Bohr (=   1.3200 Ang.)
Calculating surface                               ...        done! (  0.0s)
Cavity surface points                             ...         3377
Cavity Volume                                     ...    2403.6183
Cavity Surface-area                               ...    1210.5884
Calculating surface distance matrix               ...        done! (  0.1s)
Performing Cholesky decomposition & store         ...        done! (  0.5s)
Overall time for CPCM initialization              ...                 0.7s

----------------------------------------D-I-I-S--------------------------------------------
Iteration    Energy (Eh)           Delta-E    RMSDP     MaxDP     DIISErr   Damp  Time(sec)
-------------------------------------------------------------------------------------------
               ***  Starting incremental Fock matrix formation  ***
    1    -1004.3469606090336583     0.00e+00  1.64e-04  4.88e-03  2.14e-02  0.700  27.8
    2    -1004.3490405867116806    -2.08e-03  1.47e-04  4.38e-03  1.70e-02  0.700  11.7
                               ***Turning on AO-DIIS***
    3    -1004.3507174647022566    -1.68e-03  1.20e-04  3.65e-03  1.29e-02  0.700  12.3
    4    -1004.3519699304813457    -1.25e-03  3.03e-04  9.37e-03  9.36e-03  0.000  11.7
                              *** Initializing SOSCF ***
---------------------------------------S-O-S-C-F--------------------------------------
Iteration    Energy (Eh)           Delta-E    RMSDP     MaxDP     MaxGrad    Time(sec)
--------------------------------------------------------------------------------------
    5    -1004.3551391068751855    -3.17e-03  1.99e-05  4.35e-04  4.65e-04    12.4
               *** Restarting incremental Fock matrix formation ***
    6    -1004.3551489862531980    -9.88e-06  1.68e-05  4.31e-04  2.52e-04    27.9
    7    -1004.3551520412154332    -3.05e-06  5.93e-06  1.95e-04  3.89e-05    17.1
    8    -1004.3551520453318062    -4.12e-09  2.71e-06  1.19e-04  3.75e-05    14.4
                 **** Energy Check signals convergence ****

               *****************************************************
               *                     SUCCESS                       *
               *           SCF CONVERGED AFTER   8 CYCLES          *
               *****************************************************

Recomputing exchange energy using gridx3       ... done (   40.504 sec)
Old exchange energy                            :    -27.198805156 Eh
New exchange energy                            :    -27.198843142 Eh
Exchange energy change after final integration :     -0.000037985 Eh
Total energy after final integration           :  -1004.355190182 Eh
             **** ENERGY FILE WAS UPDATED (C:\Users\jabreumiranda\Radioprotection_Pipeline_Project\06_Quantum_DFT_ORCA\CHEMBL1683055_neutral_opt.en.tmp) ****

----------------
TOTAL SCF ENERGY
----------------

Total Energy       :      -1004.35519018194987 Eh          -27329.89415 eV

Components:
Nuclear Repulsion  :       1739.12514802739656 Eh           47324.00118 eV
Electronic Energy  :      -2743.44516463422860 Eh          -74652.93821 eV
One Electron Energy:      -4815.35649167661904 Eh         -131032.51170 eV
Two Electron Energy:       2071.91132704239044 Eh           56379.57349 eV
CPCM Dielectric    :         -0.03513558984079 Eh              -0.95609 eV

Virial components:
Potential Energy   :      -1998.52575726187160 Eh          -54382.65062 eV
Kinetic Energy     :        994.17056707992174 Eh           27052.75647 eV
Virial Ratio       :          2.01024434180539

DFT components:
N(Alpha)           :       80.999968664447 electrons
N(Beta)            :       80.999968664447 electrons
N(Total)           :      161.999937328894 electrons
E(X)               :     -108.109752652787 Eh       
E(C)               :       -6.529446220124 Eh       
E(XC)              :     -114.639198872911 Eh       

CPCM Solvation Model Properties:
Surface-charge          :         -0.02720408271851
Corrected charge        :          0.00000000000000
Outlying charge corr.   :          0.00003729445683 Eh               0.00101 eV
Free-energy (cav+disp)  :  This term is not implemented in the current solvation scheme

---------------
SCF CONVERGENCE
---------------

  Last Energy change         ...    4.1164e-09  Tolerance :   1.0000e-08
  Last MAX-Density change    ...    1.1870e-04  Tolerance :   1.0000e-07
  Last RMS-Density change    ...    2.7054e-06  Tolerance :   5.0000e-09
  Last DIIS Error            ...    4.6474e-04  Tolerance :   5.0000e-07
  Last Orbital Gradient      ...    3.7516e-05  Tolerance :   1.0000e-05
  Last Orbital Rotation      ...    8.5431e-05  Tolerance :   1.0000e-05


Total SCF time: 0 days 0 hours 3 min 9 sec 
Finished LeanSCF after 189.8 sec

Maximum memory used throughout the entire LEANSCF-calculation: 110.6 MB

------------------------------------------------------------------------------
                         ORCA PROPERTY INTEGRAL CALCULATIONS
------------------------------------------------------------------------------

GBWName                                   ... C:\Users\jabreumiranda\Radioprotection_Pipeline_Project\06_Quantum_DFT_ORCA\CHEMBL1683055_neutral_opt.gbw
Number of atoms                           ...     37
Number of basis functions                 ...    401
Max core memory                           ...   2000 MB

Dipole integrals                          ... YES
Quadrupole integrals                      ...  NO
Linear momentum integrals                 ...  NO
Angular momentum integrals                ...  NO
Higher moments length integrals           ...  NO
Higher moments velocity integrals         ...  NO
Kinetic energy integrals                  ...  NO
GIAO right hand sides                     ...  NO
GIAO dipole derivative integrals          ...  NO
SOC integrals                             ...  NO
EPR diamagnetic integrals (GIAO)          ...  NO
EPR gauge integrals                       ...  NO
Field gradient integrals                  ...  NO (   0 nuclei)
Spin-dipole/Fermi contact integrals       ...  NO (   0 nuclei)
Contact density integrals                 ...  NO (   0 nuclei)
Nucleus-orbit integrals                   ...  NO (   0 nuclei)
Geometric perturbations                   ...  NO (  37 nuclei)

Choice of electric origin   ... Center of mass
Position of electric origin ... (  0.0602,  0.0363,  0.0501) 
Choice of magnetic origin   ... GIAO
Position of magnetic origin ... (  0.0000,  0.0000,  0.0000) 

Calculating integrals                     ... Electric Dipole (Length)     done (  0.0 sec)

Property integrals calculated in   0.0 sec

Maximum memory used throughout the entire PROPINT-calculation: 26.9 MB


-------------------------------------------------------------------------------
                          DFT DISPERSION CORRECTION                            
                                                                               
                              DFTD3 V3.1  Rev 1                                
                          USING Becke-Johnson damping                          
-------------------------------------------------------------------------------
-------------------------   ----------------
Dispersion correction           -0.088077201
-------------------------   ----------------


-------------------------   --------------------
FINAL SINGLE POINT ENERGY     -1004.443267382867
-------------------------   --------------------

------------------------------------------------------------------------------
                         ORCA SCF GRADIENT CALCULATION
------------------------------------------------------------------------------

Nuc. rep. gradient        (SHARK) ... done (  0.0 sec)
HCore & Overlap gradient  (SHARK) ... done (  1.2 sec)
Split-RIJ-J gradient      (SHARK) ... done (  6.6 sec)
COSX-gradient                     ... done ( 97.6 sec)
XC gradient                       ... done ( 16.2 sec)
CPCM gradient                     ... done (  5.8 sec)
Dispersion correction             ... done (  0.1 sec)

-------------------
DISPERSION GRADIENT
-------------------

   1   N   :    0.000461316   -0.000208893   -0.000118659
   2   C   :   -0.002636349    0.001889798    0.000870698
   3   N   :    0.000017877   -0.000111104   -0.000019200
   4   C   :    0.001197069   -0.002300092   -0.000719075
   5   C   :    0.000204276    0.000315883    0.000016264
   6   C   :    0.000555923    0.000181239   -0.000090718
   7   C   :    0.000425398   -0.000121581   -0.000110109
   8   C   :   -0.000180382    0.000037293    0.000059908
   9   C   :   -0.000250146    0.000217505    0.000290787
  10   C   :   -0.000070330    0.000345710    0.000371474
  11   C   :   -0.000416114   -0.000150916   -0.000086228
  12   N   :   -0.000134463    0.000230972    0.000245121
  13   C   :    0.000374773    0.000107846    0.000049793
  14   C   :   -0.000428149    0.000148219    0.000207489
  15   C   :   -0.000368393   -0.000008298    0.000045735
  16   C   :   -0.000265865   -0.000205105   -0.000161865
  17   C   :   -0.000164844   -0.000345680   -0.000314275
  18   C   :    0.000337381    0.000139254    0.000087908
  19   N   :    0.000098936   -0.000219147   -0.000234513
  20   C   :   -0.000592055   -0.000081326   -0.000021591
  21   C   :   -0.000119835   -0.000119208   -0.000150977
  22   C   :    0.000133832   -0.000145232   -0.000018099
  23   C   :    0.001842104    0.000178307   -0.000251739
  24   N   :    0.000167239    0.000391797    0.000070182
  25   H   :    0.000206101   -0.000051639   -0.000055644
  26   H   :    0.000171117   -0.000146313   -0.000086164
  27   H   :    0.000126599    0.000295527    0.000041919
  28   H   :    0.000106686    0.000339143    0.000032654
  29   H   :   -0.000017861    0.000239597    0.000270054
  30   H   :   -0.000026071    0.000232530    0.000232861
  31   H   :   -0.000206150    0.000158967    0.000185669
  32   H   :   -0.000277491    0.000011536    0.000051853
  33   H   :   -0.000182039   -0.000167159   -0.000136942
  34   H   :   -0.000000976   -0.000228693   -0.000223796
  35   H   :   -0.000042049   -0.000201474   -0.000234573
  36   H   :   -0.000028697   -0.000317149   -0.000033630
  37   H   :   -0.000018370   -0.000332113   -0.000062574

Difference to translation invariance:
           :   -0.0000000000    0.0000000000   -0.0000000000

Difference to rotation invariance:
           :    0.0000000000    0.0000000000    0.0000000000

Norm of the Dispersion gradient    ...    0.0051857821
RMS gradient                       ...    0.0004922127
MAX gradient                       ...    0.0026363495

------------------
CARTESIAN GRADIENT
------------------

   1   N   :    0.000713064   -0.000903701    0.000729085
   2   C   :   -0.000991870    0.001084254   -0.000120943
   3   N   :    0.000763129   -0.000495375   -0.000588360
   4   C   :   -0.000682052    0.000747730    0.000361568
   5   C   :    0.000111006   -0.000329124   -0.000061230
   6   C   :   -0.000112700    0.000782573    0.000171780
   7   C   :    0.001766546   -0.000562162   -0.000307849
   8   C   :   -0.001886805   -0.000464769   -0.000295072
   9   C   :   -0.000088347    0.000629911    0.000624179
  10   C   :    0.000643637    0.000479453    0.000391634
  11   C   :   -0.000862846    0.000088521    0.000236846
  12   N   :    0.000038715   -0.000619358   -0.000560587
  13   C   :    0.001055633    0.000943910    0.000782010
  14   C   :   -0.001318288   -0.000157932    0.000057282
  15   C   :    0.000154081    0.000635674    0.000594079
  16   C   :    0.000636348   -0.000374589   -0.000462103
  17   C   :   -0.000916669   -0.000589656   -0.000455894
  18   C   :    0.001245083   -0.000157099   -0.000330650
  19   N   :   -0.000245787    0.000606690    0.000510751
  20   C   :   -0.001180715   -0.000717607   -0.000430487
  21   C   :    0.001260359   -0.000323440   -0.000670139
  22   C   :   -0.000475096   -0.000271635    0.000039582
  23   C   :    0.000277742   -0.000335121    0.000030942
  24   N   :    0.000068634   -0.000190007    0.000110937
  25   H   :    0.000008447    0.000075027    0.000102367
  26   H   :   -0.000048275    0.000305276   -0.000638436
  27   H   :    0.000072291   -0.000000302   -0.000056256
  28   H   :   -0.000567329   -0.000246444    0.000116476
  29   H   :    0.000256305   -0.000006632   -0.000178763
  30   H   :    0.000262156    0.000071443    0.000076364
  31   H   :   -0.000295096   -0.000093779   -0.000052596
  32   H   :    0.000017179    0.000232635    0.000222434
  33   H   :    0.000218561   -0.000151545   -0.000178838
  34   H   :   -0.000299860   -0.000103925   -0.000068530
  35   H   :    0.000707417    0.000287486    0.000092443
  36   H   :   -0.000328798    0.000183120    0.000109795
  37   H   :    0.000024201   -0.000059501    0.000096181

Difference to translation invariance:
           :    0.0000000000    0.0000000000   -0.0000000000

Difference to rotation invariance:
           :    0.0005252633   -0.0004210719    0.0003963949

Norm of the Cartesian gradient     ...    0.0058631471
RMS gradient                       ...    0.0005565053
MAX gradient                       ...    0.0018868051

-------
TIMINGS
-------

Total SCF gradient time     ....      127.496 sec

Densities                   ....       0.005 sec  (  0.0%)
One electron gradient       ....       1.165 sec  (  0.9%)
RI-J Coulomb gradient       ....       6.641 sec  (  5.2%)
COSX gradient               ....      97.586 sec  ( 76.5%)
XC gradient                 ....      16.161 sec  ( 12.7%)
CPCM gradient               ....       5.834 sec  (  4.6%)
   A-Matrix (El+Nuc)        ....       0.606 sec  (  0.5%)
   Potential                ....       5.228 sec  (  4.1%)

Maximum memory used throughout the entire SCFGRAD-calculation: 59.3 MB
------------------------------------------------------------------------------
                         ORCA GEOMETRY RELAXATION STEP
------------------------------------------------------------------------------

Reading the OPT-File                    .... done
Getting information on internals        .... done
Copying old internal coords+grads       .... done
Making the new internal coordinates     .... (2022 redundants) done
Validating the new internal coordinates .... (2022 redundants) done
Calculating the B-matrix                .... done
Calculating the G,G- and P matrices     .... done
Transforming gradient to internals      .... done
Projecting the internal gradient        .... done
Number of atoms                         ....  37
Number of internal coordinates          .... 207
Current Energy                          .... -1004.443267383 Eh
Current gradient norm                   ....     0.005863147 Eh/bohr
Maximum allowed component of the step   ....  0.300
Current trust radius                    ....  0.700
Updating the Hessian (BFGS)             .... done
Forming the augmented Hessian           .... done
Diagonalizing the augmented Hessian     .... done
Last element of RFO vector              ....  0.995622633
Lowest eigenvalues of augmented Hessian:
 -0.000132871  0.007249525  0.020634221  0.021537469  0.023534501
Length of the computed step             ....  0.093875211
The final length of the internal step   ....  0.093875211
Converting the step to Cartesian space:
 Initial RMS(Int)=    0.0065247782
Transforming coordinates:
 Iter   0:  RMS(Cart)=    0.0359236686 RMS(Int)=    0.8732369866
done
Storing new coordinates                 .... done
The predicted energy change is          ....    -0.000067021
Previously predicted energy change      ....    -0.000174886
Actually observed energy change         ....    -0.000228762
Ratio of predicted to observed change   ....     1.308062770
New trust radius                        ....     0.700000000

                                .--------------------.
          ----------------------|Geometry convergence|-------------------------
          Item                value                   Tolerance       Converged
          ---------------------------------------------------------------------
          Energy change      -0.0002287622            0.0000050000      NO
          RMS gradient        0.0003256830            0.0001000000      NO
          MAX gradient        0.0012829175            0.0003000000      NO
          RMS step            0.0065247782            0.0020000000      NO
          MAX step            0.0398960193            0.0040000000      NO
          -------------------------------------------------------------------------
          ........................................................
          Max(Bonds)      0.0018      Max(Angles)    0.39
          Max(Dihed)        2.29      Max(Improp)    0.00
          ---------------------------------------------------------------------

The optimization has not yet converged - more geometry cycles are needed


    ---------------------------------------------------------------------------
                         Redundant Internal Coordinates
                            (Angstroem and degrees)

        Definition                    Value    dE/dq     Step     New-Value
    ----------------------------------------------------------------------------
     1. B(C   1,N   0)                1.3607  0.000794 -0.0011    1.3595   
     2. B(N   2,C   1)                1.3252 -0.000363  0.0004    1.3256   
     3. B(C   3,N   2)                1.3841  0.000630 -0.0012    1.3830   
     4. B(C   4,C   3)                1.4014 -0.000034 -0.0002    1.4012   
     5. B(C   5,C   4)                1.3964  0.000070 -0.0001    1.3963   
     6. B(C   6,C   5)                1.4174 -0.000199  0.0006    1.4180   
     7. B(C   7,C   6)                1.4828  0.000584 -0.0011    1.4817   
     8. B(C   8,C   7)                1.4429  0.000264  0.0005    1.4434   
     9. B(C   9,C   8)                1.3685 -0.000390  0.0002    1.3687   
    10. B(C  10,C   9)                1.4324  0.001116 -0.0010    1.4313   
    11. B(N  11,C  10)                1.3367 -0.000245 -0.0001    1.3366   
    12. B(C  12,N  11)                1.3414 -0.000527  0.0005    1.3419   
    13. B(C  13,C  12)                1.4315  0.001155 -0.0012    1.4303   
    14. B(C  14,C  13)                1.3728 -0.000564  0.0006    1.3733   
    15. B(C  15,C  14)                1.4306  0.000913 -0.0009    1.4297   
    16. B(C  16,C  15)                1.3726 -0.000534  0.0005    1.3731   
    17. B(C  17,C  16)                1.4323  0.001058 -0.0010    1.4313   
    18. B(C  17,C  12)                1.4506  0.000872 -0.0018    1.4488   
    19. B(N  18,C  17)                1.3401 -0.000391  0.0003    1.3404   
    20. B(C  19,N  18)                1.3409 -0.000431  0.0004    1.3413   
    21. B(C  19,C  10)                1.4508  0.000914 -0.0018    1.4490   
    22. B(C  20,C  19)                1.4274  0.001283 -0.0016    1.4259   
    23. B(C  20,C   7)                1.3828 -0.000636  0.0010    1.3838   
    24. B(C  21,C   6)                1.4117 -0.000420  0.0011    1.4129   
    25. B(C  22,C  21)                1.3886  0.000249 -0.0007    1.3879   
    26. B(C  22,C   3)                1.4261  0.000489 -0.0006    1.4255   
    27. B(N  23,C  22)                1.3862 -0.000001 -0.0000    1.3862   
    28. B(N  23,C   1)                1.3763  0.000016 -0.0004    1.3759   
    29. B(H  24,N   0)                1.0154  0.000020 -0.0001    1.0153   
    30. B(H  25,N   0)                1.0159  0.000104 -0.0002    1.0157   
    31. B(H  26,C   4)                1.0926  0.000034 -0.0001    1.0925   
    32. B(H  27,C   5)                1.0917  0.000065 -0.0004    1.0913   
    33. B(H  28,C   8)                1.0913  0.000072 -0.0004    1.0910   
    34. B(H  29,C   9)                1.0922  0.000005 -0.0000    1.0922   
    35. B(H  30,C  13)                1.0922  0.000002 -0.0000    1.0922   
    36. B(H  31,C  14)                1.0928  0.000034 -0.0001    1.0927   
    37. B(H  32,C  15)                1.0929  0.000034 -0.0001    1.0928   
    38. B(H  33,C  16)                1.0922  0.000003 -0.0000    1.0922   
    39. B(H  34,C  20)                1.0910 -0.000026 -0.0000    1.0910   
    40. B(H  35,C  21)                1.0911  0.000016 -0.0002    1.0909   
    41. B(H  36,N  23)                1.0146  0.000039 -0.0001    1.0145   
    42. A(C   1,N   0,H  24)          115.04 -0.000130    0.16    115.20   
    43. A(H  24,N   0,H  25)          114.38  0.000003    0.27    114.65   
    44. A(C   1,N   0,H  25)          117.50 -0.000248    0.07    117.57   
    45. A(N   2,C   1,N  23)          112.99  0.000332   -0.06    112.94   
    46. A(N   0,C   1,N  23)          121.66 -0.000137    0.06    121.71   
    47. A(N   0,C   1,N   2)          125.28 -0.000199    0.00    125.28   
    48. A(C   1,N   2,C   3)          105.09 -0.000047    0.01    105.10   
    49. A(N   2,C   3,C  22)          110.22 -0.000286    0.06    110.28   
    50. A(C   4,C   3,C  22)          118.95  0.000282   -0.09    118.86   
    51. A(N   2,C   3,C   4)          130.83  0.000004    0.04    130.86   
    52. A(C   3,C   4,C   5)          118.59 -0.000110    0.04    118.63   
    53. A(C   5,C   4,H  26)          120.94  0.000134   -0.05    120.89   
    54. A(C   3,C   4,H  26)          120.47 -0.000024    0.01    120.48   
    55. A(C   4,C   5,C   6)          122.20 -0.000400    0.12    122.32   
    56. A(C   4,C   5,H  27)          118.87  0.000840   -0.22    118.66   
    57. A(C   6,C   5,H  27)          118.91 -0.000440    0.09    119.00   
    58. A(C   5,C   6,C   7)          120.34 -0.000889    0.23    120.57   
    59. A(C   5,C   6,C  21)          119.55  0.000883   -0.26    119.29   
    60. A(C   7,C   6,C  21)          120.11  0.000006    0.03    120.14   
    61. A(C   8,C   7,C  20)          118.53  0.001041   -0.27    118.26   
    62. A(C   6,C   7,C  20)          121.58 -0.000179    0.14    121.72   
    63. A(C   6,C   7,C   8)          119.89 -0.000861    0.14    120.02   
    64. A(C   7,C   8,H  28)          118.72 -0.000223   -0.02    118.70   
    65. A(C   9,C   8,H  28)          119.38  0.000372   -0.06    119.32   
    66. A(C   7,C   8,C   9)          121.88 -0.000149    0.08    121.96   
    67. A(C  10,C   9,H  29)          118.00  0.000389   -0.20    117.81   
    68. A(C   8,C   9,H  29)          121.44 -0.000194    0.15    121.59   
    69. A(C   8,C   9,C  10)          120.55 -0.000195    0.05    120.60   
    70. A(N  11,C  10,C  19)          121.34 -0.000246    0.05    121.39   
    71. A(C   9,C  10,C  19)          118.34  0.000140   -0.06    118.28   
    72. A(C   9,C  10,N  11)          120.32  0.000106    0.01    120.33   
    73. A(C  10,N  11,C  12)          117.83  0.000263   -0.02    117.80   
    74. A(N  11,C  12,C  13)          120.05  0.000239   -0.03    120.02   
    75. A(C  13,C  12,C  17)          119.00 -0.000186    0.04    119.04   
    76. A(N  11,C  12,C  17)          120.96 -0.000052   -0.01    120.94   
    77. A(C  14,C  13,H  30)          121.76 -0.000295    0.18    121.94   
    78. A(C  12,C  13,C  14)          120.30 -0.000054    0.00    120.31   
    79. A(C  12,C  13,H  30)          117.94  0.000349   -0.18    117.76   
    80. A(C  13,C  14,C  15)          120.73  0.000216   -0.04    120.69   
    81. A(C  13,C  14,H  31)          119.93 -0.000442    0.17    120.10   
    82. A(C  15,C  14,H  31)          119.34  0.000227   -0.13    119.21   
    83. A(C  16,C  15,H  32)          119.88 -0.000421    0.16    120.04   
    84. A(C  14,C  15,H  32)          119.31  0.000231   -0.13    119.17   
    85. A(C  14,C  15,C  16)          120.82  0.000190   -0.03    120.79   
    86. A(C  15,C  16,H  33)          121.76 -0.000305    0.19    121.94   
    87. A(C  17,C  16,H  33)          117.92  0.000366   -0.19    117.73   
    88. A(C  15,C  16,C  17)          120.32 -0.000061    0.00    120.33   
    89. A(C  16,C  17,N  18)          120.03  0.000256   -0.04    120.00   
    90. A(C  12,C  17,N  18)          121.14 -0.000152    0.02    121.16   
    91. A(C  12,C  17,C  16)          118.83 -0.000104    0.01    118.84   
    92. A(C  17,N  18,C  19)          117.89  0.000223   -0.01    117.88   
    93. A(N  18,C  19,C  20)          119.97  0.000297   -0.04    119.94   
    94. A(C  10,C  19,C  20)          119.18 -0.000261    0.06    119.24   
    95. A(C  10,C  19,N  18)          120.85 -0.000036   -0.03    120.82   
    96. A(C  19,C  20,H  34)          117.30  0.001078   -0.39    116.91   
    97. A(C   7,C  20,H  34)          121.18 -0.000503    0.23    121.41   
    98. A(C   7,C  20,C  19)          121.51 -0.000575    0.15    121.66   
    99. A(C   6,C  21,H  35)          120.96 -0.000188    0.05    121.01   
   100. A(C   6,C  21,C  22)          117.87 -0.000433    0.13    118.00   
   101. A(C  22,C  21,H  35)          121.15  0.000621   -0.18    120.96   
   102. A(C  21,C  22,N  23)          132.63  0.000147   -0.01    132.61   
   103. A(C   3,C  22,N  23)          104.53  0.000075   -0.04    104.49   
   104. A(C   3,C  22,C  21)          122.84 -0.000223    0.06    122.90   
   105. A(C   1,N  23,C  22)          107.16 -0.000075    0.03    107.19   
   106. A(C  22,N  23,H  36)          126.76  0.000048   -0.03    126.74   
   107. A(C   1,N  23,H  36)          126.06  0.000025   -0.00    126.06   
   108. D(N   2,C   1,N   0,H  24)    -16.37  0.000045   -0.78    -17.15   
   109. D(N  23,C   1,N   0,H  25)     27.81  0.000627   -1.69     26.13   
   110. D(N  23,C   1,N   0,H  24)    167.01  0.000132   -0.94    166.07   
   111. D(N   2,C   1,N   0,H  25)   -155.56  0.000539   -1.53   -157.09   
   112. D(C   3,N   2,C   1,N   0)   -176.62  0.000117   -0.22   -176.83   
   113. D(C   3,N   2,C   1,N  23)      0.26  0.000024   -0.07      0.19   
   114. D(C   4,C   3,N   2,C   1)    179.45 -0.000029    0.07    179.52   
   115. D(C  22,C   3,N   2,C   1)     -0.40 -0.000026    0.08     -0.32   
   116. D(H  26,C   4,C   3,N   2)      0.64  0.000013    0.02      0.66   
   117. D(H  26,C   4,C   3,C  22)   -179.52  0.000008    0.00   -179.52   
   118. D(C   5,C   4,C   3,C  22)      0.24  0.000006   -0.02      0.23   
   119. D(C   5,C   4,C   3,N   2)   -179.59  0.000010   -0.00   -179.59   
   120. D(H  27,C   5,C   4,C   3)   -178.89 -0.000020    0.21   -178.68   
   121. D(C   6,C   5,C   4,C   3)     -0.58 -0.000039    0.15     -0.44   
   122. D(C   6,C   5,C   4,H  26)    179.18 -0.000042    0.13    179.31   
   123. D(H  27,C   5,C   4,H  26)      0.88 -0.000023    0.20      1.07   
   124. D(C  21,C   6,C   5,H  27)    178.77  0.000047   -0.24    178.53   
   125. D(C  21,C   6,C   5,C   4)      0.47  0.000045   -0.17      0.29   
   126. D(C   7,C   6,C   5,H  27)     -0.61  0.000022   -0.09     -0.70   
   127. D(C   7,C   6,C   5,C   4)   -178.92  0.000020   -0.02   -178.94   
   128. D(C  20,C   7,C   6,C  21)    -30.17 -0.000111    2.29    -27.88   
   129. D(C   8,C   7,C   6,C  21)    149.49 -0.000101    2.27    151.76   
   130. D(C  20,C   7,C   6,C   5)    149.21 -0.000081    2.13    151.34   
   131. D(C   8,C   7,C   6,C   5)    -31.13 -0.000071    2.12    -29.02   
   132. D(H  28,C   8,C   7,C  20)    178.93  0.000080   -0.35    178.58   
   133. D(H  28,C   8,C   7,C   6)     -0.73  0.000073   -0.34     -1.07   
   134. D(C   9,C   8,C   7,C  20)      0.42  0.000099   -0.36      0.06   
   135. D(C   9,C   8,C   7,C   6)   -179.25  0.000093   -0.35   -179.59   
   136. D(H  29,C   9,C   8,C   7)    179.15 -0.000049    0.16    179.31   
   137. D(C  10,C   9,C   8,H  28)   -178.74 -0.000014    0.14   -178.60   
   138. D(C  10,C   9,C   8,C   7)     -0.24 -0.000042    0.15     -0.09   
   139. D(H  29,C   9,C   8,H  28)      0.65 -0.000021    0.16      0.80   
   140. D(C  19,C  10,C   9,H  29)   -179.42 -0.000020    0.11   -179.31   
   141. D(C  19,C  10,C   9,C   8)     -0.00 -0.000030    0.12      0.12   
   142. D(N  11,C  10,C   9,H  29)      0.56 -0.000005    0.05      0.61   
   143. D(N  11,C  10,C   9,C   8)    179.97 -0.000014    0.07    180.03   
   144. D(C  12,N  11,C  10,C  19)     -0.31 -0.000006    0.01     -0.31   
   145. D(C  12,N  11,C  10,C   9)    179.71 -0.000022    0.06    179.78   
   146. D(C  17,C  12,N  11,C  10)     -0.05 -0.000013    0.04     -0.01   
   147. D(C  13,C  12,N  11,C  10)   -179.97 -0.000007    0.03   -179.94   
   148. D(H  30,C  13,C  12,C  17)    179.98  0.000005   -0.02    179.96   
   149. D(H  30,C  13,C  12,N  11)     -0.09 -0.000001   -0.01     -0.10   
   150. D(C  14,C  13,C  12,C  17)     -0.06  0.000003   -0.02     -0.08   
   151. D(C  14,C  13,C  12,N  11)    179.86 -0.000003   -0.00    179.86   
   152. D(H  31,C  14,C  13,H  30)     -0.03 -0.000003    0.01     -0.02   
   153. D(H  31,C  14,C  13,C  12)   -179.99 -0.000001    0.01   -179.98   
   154. D(C  15,C  14,C  13,H  30)    179.96 -0.000003    0.01    179.97   
   155. D(C  15,C  14,C  13,C  12)      0.01 -0.000001    0.01      0.01   
   156. D(H  32,C  15,C  14,H  31)      0.00 -0.000004    0.01      0.02   
   157. D(H  32,C  15,C  14,C  13)   -179.99 -0.000004    0.01   -179.98   
   158. D(C  16,C  15,C  14,H  31)   -179.99 -0.000002    0.01   -179.98   
   159. D(C  16,C  15,C  14,C  13)      0.02 -0.000002    0.01      0.03   
   160. D(H  33,C  16,C  15,H  32)     -0.00  0.000000   -0.00     -0.01   
   161. D(H  33,C  16,C  15,C  14)    179.99 -0.000001    0.00    179.99   
   162. D(C  17,C  16,C  15,H  32)   -179.98  0.000005   -0.02   -180.00   
   163. D(C  17,C  16,C  15,C  14)      0.01  0.000004   -0.02     -0.00   
   164. D(C  12,C  17,C  16,H  33)    179.96  0.000003   -0.02    179.94   
   165. D(C  12,C  17,C  16,C  15)     -0.07 -0.000002    0.00     -0.06   
   166. D(N  18,C  17,C  12,C  13)   -179.86  0.000007   -0.02   -179.88   
   167. D(N  18,C  17,C  12,N  11)      0.22  0.000013   -0.03      0.18   
   168. D(C  16,C  17,C  12,C  13)      0.09 -0.000002    0.02      0.11   
   169. D(N  18,C  17,C  16,C  15)    179.88 -0.000011    0.04    179.92   
   170. D(C  16,C  17,C  12,N  11)   -179.83  0.000004   -0.00   -179.83   
   171. D(N  18,C  17,C  16,H  33)     -0.09 -0.000005    0.02     -0.07   
   172. D(C  19,N  18,C  17,C  16)   -179.94  0.000021   -0.06   -180.01   
   173. D(C  19,N  18,C  17,C  12)      0.00  0.000012   -0.03     -0.03   
   174. D(C  20,C  19,N  18,C  17)   -179.91 -0.000035    0.13   -179.78   
   175. D(C  10,C  19,N  18,C  17)     -0.36 -0.000032    0.08     -0.28   
   176. D(C  20,C  19,C  10,N  11)   -179.90  0.000036   -0.12   -180.02   
   177. D(C  20,C  19,C  10,C   9)      0.07  0.000052   -0.17     -0.10   
   178. D(N  18,C  19,C  10,N  11)      0.55  0.000031   -0.07      0.47   
   179. D(N  18,C  19,C  10,C   9)   -179.48  0.000047   -0.13   -179.61   
   180. D(H  34,C  20,C  19,N  18)      0.97  0.000003    0.08      1.04   
   181. D(H  34,C  20,C  19,C  10)   -178.59 -0.000001    0.12   -178.47   
   182. D(C   7,C  20,C  19,N  18)    179.67  0.000002   -0.08    179.59   
   183. D(C   7,C  20,C  19,C  10)      0.12 -0.000002   -0.04      0.08   
   184. D(H  34,C  20,C   7,C   8)    178.30 -0.000054    0.13    178.43   
   185. D(H  34,C  20,C   7,C   6)     -2.04 -0.000050    0.12     -1.92   
   186. D(C  19,C  20,C   7,C   8)     -0.35 -0.000073    0.30     -0.05   
   187. D(C  19,C  20,C   7,C   6)    179.31 -0.000069    0.29    179.60   
   188. D(H  35,C  21,C   6,C   7)     -2.29 -0.000002   -0.14     -2.44   
   189. D(H  35,C  21,C   6,C   5)    178.32 -0.000020    0.01    178.33   
   190. D(C  22,C  21,C   6,C   7)    179.38  0.000009   -0.09    179.29   
   191. D(C  22,C  21,C   6,C   5)     -0.01 -0.000010    0.07      0.06   
   192. D(N  23,C  22,C  21,H  35)      0.94  0.000006    0.08      1.02   
   193. D(N  23,C  22,C  21,C   6)    179.26 -0.000018    0.02    179.29   
   194. D(C   3,C  22,C  21,H  35)   -178.65 -0.000002    0.12   -178.53   
   195. D(C   3,C  22,C  21,C   6)     -0.33 -0.000026    0.06     -0.27   
   196. D(N  23,C  22,C   3,C   4)   -179.48  0.000023   -0.06   -179.54   
   197. D(N  23,C  22,C   3,N   2)      0.39  0.000020   -0.07      0.32   
   198. D(C  21,C  22,C   3,C   4)      0.21  0.000030   -0.09      0.12   
   199. D(C  21,C  22,C   3,N   2)   -179.92  0.000026   -0.10   -180.02   
   200. D(H  36,N  23,C  22,C  21)     -1.39 -0.000081    0.30     -1.09   
   201. D(H  36,N  23,C  22,C   3)    178.25 -0.000075    0.27    178.52   
   202. D(C   1,N  23,C  22,C  21)   -179.87 -0.000012    0.06   -179.81   
   203. D(C   1,N  23,C  22,C   3)     -0.22 -0.000006    0.03     -0.19   
   204. D(H  36,N  23,C   1,N   2)   -178.51  0.000056   -0.22   -178.72   
   205. D(H  36,N  23,C   1,N   0)     -1.50 -0.000037   -0.08     -1.58   
   206. D(C  22,N  23,C   1,N   2)     -0.02 -0.000011    0.02      0.01   
   207. D(C  22,N  23,C   1,N   0)    176.99 -0.000104    0.16    177.15   
    ----------------------------------------------------------------------------

Geometry step timings:
Preparation and reading OPT file:      0.011 s (40.741 %)
Internal coordinates            :      0.000 s ( 0.000 %)
B/P matrices and projection     :      0.005 s (18.519 %)
Hessian update/contruction      :      0.004 s (14.815 %)
Making the step                 :      0.002 s ( 7.407 %)
Converting the step to Cartesian:      0.001 s ( 3.704 %)
Storing new data                :      0.000 s ( 0.000 %)
Checking convergence            :      0.000 s ( 0.000 %)
Final printing                  :      0.004 s (14.815 %)
Total time                      :      0.027 s

Time for energy+gradient        :    324.354 s
Time for complete geometry iter :    324.533 s

         *************************************************************
         *                GEOMETRY OPTIMIZATION CYCLE   6            *
         *************************************************************
---------------------------------
CARTESIAN COORDINATES (ANGSTROEM)
---------------------------------
  N      7.084413   -1.702804   -1.194133
  C      5.982646   -0.967315   -0.888391
  N      5.985053    0.319944   -0.571852
  C      4.668559    0.619824   -0.272580
  C      4.071498    1.820312    0.134559
  C      2.696958    1.834355    0.379825
  C      1.886954    0.681189    0.222485
  C      0.427665    0.745759    0.470966
  C     -0.101666    1.693225    1.422610
  C     -1.441305    1.781220    1.688798
  C     -2.374514    0.925651    1.021101
  N     -3.681664    1.016635    1.284654
  C     -4.511779    0.193067    0.626282
  C     -5.919811    0.250929    0.870889
  C     -6.775034   -0.587095    0.198341
  C     -6.275094   -1.528707   -0.754246
  C     -4.930157   -1.616172   -1.016942
  C     -4.004100   -0.761833   -0.337807
  N     -2.692496   -0.853964   -0.598127
  C     -1.862784   -0.032796    0.062400
  C     -0.459543   -0.090260   -0.183932
  C      2.483180   -0.531202   -0.190792
  C      3.851125   -0.537962   -0.425373
  N      4.731045   -1.534472   -0.818162
  H      7.910386   -1.164024   -1.435662
  H      6.949630   -2.542987   -1.748734
  H      4.671606    2.725569    0.252563
  H      2.227725    2.774122    0.675746
  H      0.593444    2.339701    1.960301
  H     -1.834150    2.492830    2.418238
  H     -6.279592    0.977999    1.602246
  H     -7.850208   -0.539796    0.387585
  H     -6.977947   -2.183388   -1.275481
  H     -4.527879   -2.328519   -1.740565
  H     -0.118387   -0.807857   -0.931571
  H      1.891416   -1.441773   -0.294669
  H      4.504804   -2.506506   -1.000472

----------------------------
CARTESIAN COORDINATES (A.U.)
----------------------------
  NO LB      ZA    FRAG     MASS         X           Y           Z
   0 N     7.0000    0    14.007   13.387601   -3.217833   -2.256585
   1 C     6.0000    0    12.011   11.305563   -1.827961   -1.678815
   2 N     7.0000    0    14.007   11.310112    0.604606   -1.080644
   3 C     6.0000    0    12.011    8.822298    1.171297   -0.515102
   4 C     6.0000    0    12.011    7.694015    3.439891    0.254280
   5 C     6.0000    0    12.011    5.096513    3.466428    0.717766
   6 C     6.0000    0    12.011    3.565827    1.287260    0.420435
   7 C     6.0000    0    12.011    0.808169    1.409280    0.889997
   8 C     6.0000    0    12.011   -0.192120    3.199731    2.688343
   9 C     6.0000    0    12.011   -2.723672    3.366017    3.191366
  10 C     6.0000    0    12.011   -4.487181    1.749228    1.929601
  11 N     7.0000    0    14.007   -6.957336    1.921162    2.427643
  12 C     6.0000    0    12.011   -8.526026    0.364844    1.183502
  13 C     6.0000    0    12.011  -11.186822    0.474187    1.645741
  14 C     6.0000    0    12.011  -12.802958   -1.109449    0.374811
  15 C     6.0000    0    12.011  -11.858209   -2.888837   -1.425318
  16 C     6.0000    0    12.011   -9.316647   -3.054122   -1.921742
  17 C     6.0000    0    12.011   -7.566652   -1.439656   -0.638362
  18 N     7.0000    0    14.007   -5.088080   -1.613759   -1.130297
  19 C     6.0000    0    12.011   -3.520152   -0.061976    0.117920
  20 C     6.0000    0    12.011   -0.868410   -0.170567   -0.347580
  21 C     6.0000    0    12.011    4.692529   -1.003826   -0.360545
  22 C     6.0000    0    12.011    7.277572   -1.016601   -0.803839
  23 N     7.0000    0    14.007    8.940379   -2.899733   -1.546102
  24 H     1.0000    0     1.008   14.948464   -2.199686   -2.713007
  25 H     1.0000    0     1.008   13.132897   -4.805550   -3.304629
  26 H     1.0000    0     1.008    8.828055    5.150580    0.477274
  27 H     1.0000    0     1.008    4.209791    5.242331    1.276976
  28 H     1.0000    0     1.008    1.121446    4.421395    3.704432
  29 H     1.0000    0     1.008   -3.466040    4.710767    4.569807
  30 H     1.0000    0     1.008  -11.866708    1.848150    3.027807
  31 H     1.0000    0     1.008  -14.834743   -1.020066    0.732430
  32 H     1.0000    0     1.008  -13.186409   -4.126005   -2.410310
  33 H     1.0000    0     1.008   -8.556452   -4.400263   -3.289191
  34 H     1.0000    0     1.008   -0.223718   -1.526628   -1.760414
  35 H     1.0000    0     1.008    3.574258   -2.724556   -0.556844
  36 H     1.0000    0     1.008    8.512846   -4.736609   -1.890619

--------------------------------
INTERNAL COORDINATES (ANGSTROEM)
--------------------------------
 N      0   0   0     0.000000000000     0.00000000     0.00000000
 C      1   0   0     1.359526646346     0.00000000     0.00000000
 N      2   1   0     1.325608694552   125.27960927     0.00000000
 C      3   2   1     1.382985308368   105.10010322   183.16713686
 C      4   3   2     1.401219687815   130.86384890   179.51763535
 C      5   4   3     1.396320375892   118.62719048   180.40457029
 C      6   5   4     1.417975517564   122.32082650   359.56291258
 C      7   6   5     1.481701301709   120.56736949   181.06336682
 C      8   7   6     1.443436205640   120.02226337   330.98365217
 C      9   8   7     1.368661118796   121.96255471   180.40620306
 C     10   9   8     1.431326177106   120.59769691   359.90519006
 N     11  10   9     1.336554681504   120.32923170   180.03425911
 C     12  11  10     1.341942128577   117.80491759   179.77800255
 C     13  12  11     1.430292590208   120.01548279   180.05628492
 C     14  13  12     1.373320593814   120.30552868   179.85795748
 C     15  14  13     1.429683272310   120.69274770     0.00000000
 C     16  15  14     1.373140081616   120.79207688     0.02850663
 C     17  16  15     1.431328468172   120.32537838     0.00000000
 N     18  17  16     1.340358098906   119.99551449   179.91802401
 C     19  18  17     1.341281350860   117.87857483   179.99143902
 C      8   7   6     1.383819253064   121.71805952   151.34078643
 C      7   6   5     1.412859712183   119.29143173     0.29472414
 C     22   7   6     1.387930181399   118.00452863     0.05963296
 N      2   1   3     1.375901586692   121.71344302   183.22032083
 H      1   2   3     1.015308396162   115.19491588   342.85307055
 H      1   2   3     1.015705527839   117.56512230   202.90539106
 H      5   4   3     1.092495208619   120.48003083     0.65438456
 H      6   5   4     1.091289032201   118.65697478   181.32251206
 H      9   8   7     1.090972231547   118.70126998   358.92529369
 H     10   9   8     1.092153268265   121.59136164   179.31073352
 H     14  13  12     1.092225602898   117.75674695   359.89960918
 H     15  14  13     1.092725922502   120.10002801   180.02058171
 H     16  15  14     1.092838461323   119.17287378   180.02220865
 H     17  16  15     1.092197660394   121.94124630   179.98852512
 H     21   8   7     1.091007181266   121.41235378   358.07659047
 H     22   7   6     1.090923811194   121.01015008   178.32786465
 H     24   2   1     1.014529871696   126.05938892   358.42337495

---------------------------
INTERNAL COORDINATES (A.U.)
---------------------------
 N      0   0   0     0.000000000000     0.00000000     0.00000000
 C      1   0   0     2.569133033363     0.00000000     0.00000000
 N      2   1   0     2.505037393448   125.27960927     0.00000000
 C      3   2   1     2.613463480052   105.10010322   183.16713686
 C      4   3   2     2.647921463429   130.86384890   179.51763535
 C      5   4   3     2.638663105650   118.62719048   180.40457029
 C      6   5   4     2.679585392801   122.32082650   359.56291258
 C      7   6   5     2.800009672505   120.56736949   181.06336682
 C      8   7   6     2.727699120447   120.02226337   330.98365217
 C      9   8   7     2.586394684670   121.96255471   180.40620306
 C     10   9   8     2.704814483042   120.59769691   359.90519006
 N     11  10   9     2.525722311053   120.32923170   180.03425911
 C     12  11  10     2.535903110581   117.80491759   179.77800255
 C     13  12  11     2.702861286869   120.01548279   180.05628492
 C     14  13  12     2.595199816382   120.30552868   179.85795748
 C     15  14  13     2.701709842915   120.69274770     0.00000000
 C     16  15  14     2.594858697765   120.79207688     0.02850663
 C     17  16  15     2.704818812531   120.32537838     0.00000000
 N     18  17  16     2.532909728316   119.99551449   179.91802401
 C     19  18  17     2.534654421662   117.87857483   179.99143902
 C      8   7   6     2.615039407138   121.71805952   151.34078643
 C      7   6   5     2.669917921676   119.29143173     0.29472414
 C     22   7   6     2.622807935848   118.00452863     0.05963296
 N      2   1   3     2.600077186075   121.71344302   183.22032083
 H      1   2   3     1.918654810217   115.19491588   342.85307055
 H      1   2   3     1.919405280325   117.56512230   202.90539106
 H      5   4   3     2.064516746912   120.48003083     0.65438456
 H      6   5   4     2.062237403812   118.65697478   181.32251206
 H      9   8   7     2.061638737336   118.70126998   358.92529369
 H     10   9   8     2.063870573289   121.59136164   179.31073352
 H     14  13  12     2.064007265934   117.75674695   359.89960918
 H     15  14  13     2.064952732964   120.10002801   180.02058171
 H     16  15  14     2.065165400516   119.17287378   180.02220865
 H     17  16  15     2.063954462254   121.94124630   179.98852512
 H     21   8   7     2.061704782734   121.41235378   358.07659047
 H     22   7   6     2.061547236131   121.01015008   178.32786465
 H     24   2   1     1.917183612188   126.05938892   358.42337495

------------------------------------------------------------------------------
                   ___                                                        
                  /   \      - P O W E R E D   B Y -                         
                 /     \                                                     
                 |  |  |   _    _      __       _____    __    __             
                 |  |  |  | |  | |    /  \     |  _  \  |  |  /  |          
                  \  \/   | |  | |   /    \    | | | |  |  | /  /          
                 / \  \   | |__| |  /  /\  \   | |_| |  |  |/  /          
                |  |  |   |  __  | /  /__\  \  |    /   |      \           
                |  |  |   | |  | | |   __   |  |    \   |  |\   \          
                \     /   | |  | | |  |  |  |  | |\  \  |  | \   \       
                 \___/    |_|  |_| |__|  |__|  |_| \__\ |__|  \__/        
                                                                              
                      - O R C A' S   B I G   F R I E N D -                    
                                      &                                       
                       - I N T E G R A L  F E E D E R -                       
                                                                              
 v1 FN, 2020, v2 2021, v3 2022-2024                                           
------------------------------------------------------------------------------


----------------------
SHARK INTEGRAL PACKAGE
----------------------

Number of atoms                             ...     37
Number of basis functions                   ...    401
Number of shells                            ...    183
Maximum angular momentum                    ...      2
Integral batch strategy                     ... SHARK/LIBINT Hybrid
RI-J (if used) integral strategy            ... SPLIT-RIJ (Revised 2003 algorithm where possible)
Printlevel                                  ...      1
Contraction scheme used                     ... SEGMENTED contraction
Prescreening option                         ... SCHWARTZ
   Thresh                                   ... 2.500e-11
   Tcut                                     ... 2.500e-12
   Tpresel                                  ... 2.500e-12 
Coulomb Range Separation                    ... NOT USED
Exchange Range Separation                   ... NOT USED
Multipole approximations                    ... NOT USED
Finite Nucleus Model                        ... NOT USED
CABS basis                                  ... NOT available
Auxiliary Coulomb fitting basis             ... AVAILABLE
   # of basis functions in Aux-J            ...   1319
   # of shells in Aux-J                     ...    425
   Maximum angular momentum in Aux-J        ...      4
Auxiliary J/K fitting basis                 ... NOT available
Auxiliary Correlation fitting basis         ... NOT available
Auxiliary 'external' fitting basis          ... NOT available

Checking pre-screening integrals            ... done (  0.0 sec) Dimension = 183
   => SHARK Basis and OBASIS are compatible. Storing Pre-screening
Shell pair information
Shell pair cut-off parameter TPreSel        ...   2.5e-12
Total number of shell pairs                 ...     16836
Shell pairs after pre-screening             ...     10510
Total number of primitive shell pairs       ...     62832
Primitive shell pairs kept                  ...     25463
          la=0 lb=0:   3068 shell pairs
          la=1 lb=0:   3839 shell pairs
          la=1 lb=1:   1261 shell pairs
          la=2 lb=0:   1323 shell pairs
          la=2 lb=1:    862 shell pairs
          la=2 lb=2:    157 shell pairs

Checking whether 4 symmetric matrices of dimension 401 fit in memory
:Max Core in MB      =   2000.00
 MB in use           =     15.17
 MB left             =   1984.83
 MB needed           =      2.46
 Data fit in memory  = YES
Calculating RI/J V-Matrix + Cholesky decomp.... done (  0.2 sec)
Calculating Nuclear repulsion               ... done (  0.0 sec) ENN=   1739.324925495707 Eh

Diagonalization of the overlap matrix:
Smallest eigenvalue                        ... 2.166e-04
Time for diagonalization                   ...    0.027 sec
Threshold for overlap eigenvalues          ... 1.000e-07
Number of eigenvalues below threshold      ... 0
Time for construction of square roots      ...    0.014 sec
Total time needed                          ...    0.044 sec

-------------------
DFT GRID GENERATION
-------------------

General Integration Accuracy     IntAcc      ... 4.388
Radial Grid Type                 RadialGrid  ... OptM3 with GC (2021)
Angular Grid (max. ang.)         AngularGrid ... 4 (Lebedev-302)
Angular grid pruning method      GridPruning ... 4 (adaptive)
Weight generation scheme         WeightScheme... mBecke (2022)
Basis function cutoff            BFCut       ... 1.0000e-11
Integration weight cutoff        WCut        ... 1.0000e-14
Partially contracted basis set               ... off
Rotationally invariant grid construction     ... off
Angular grids for H and He will be reduced by one unit

Total number of grid points                  ...   185207
Total number of batches                      ...     2911
Average number of points per batch           ...       63
Average number of grid points per atom       ...     5006

--------------------
COSX GRID GENERATION
--------------------

GRIDX 1
-------
General Integration Accuracy     IntAcc      ... 3.816
Radial Grid Type                 RadialGrid  ... OptM3 with GC (2021)
Angular Grid (max. ang.)         AngularGrid ... 1 (Lebedev-50)
Angular grid pruning method      GridPruning ... 4 (adaptive)
Weight generation scheme         WeightScheme... mBecke (2022)
Basis function cutoff            BFCut       ... 1.0000e-11
Integration weight cutoff        WCut        ... 1.0000e-14
Partially contracted basis set               ... on
Rotationally invariant grid construction     ... off
Angular grids for H and He will be reduced by one unit

Total number of grid points                  ...    23520
Total number of batches                      ...      201
Average number of points per batch           ...      117
Average number of grid points per atom       ...      636
UseSFitting                                  ... on

GRIDX 2
-------
General Integration Accuracy     IntAcc      ... 4.020
Radial Grid Type                 RadialGrid  ... OptM3 with GC (2021)
Angular Grid (max. ang.)         AngularGrid ... 2 (Lebedev-110)
Angular grid pruning method      GridPruning ... 4 (adaptive)
Weight generation scheme         WeightScheme... mBecke (2022)
Basis function cutoff            BFCut       ... 1.0000e-11
Integration weight cutoff        WCut        ... 1.0000e-14
Partially contracted basis set               ... on
Rotationally invariant grid construction     ... off
Angular grids for H and He will be reduced by one unit

Total number of grid points                  ...    52157
Total number of batches                      ...      426
Average number of points per batch           ...      122
Average number of grid points per atom       ...     1410
UseSFitting                                  ... on

GRIDX 3
-------
General Integration Accuracy     IntAcc      ... 4.338
Radial Grid Type                 RadialGrid  ... OptM3 with GC (2021)
Angular Grid (max. ang.)         AngularGrid ... 3 (Lebedev-194)
Angular grid pruning method      GridPruning ... 4 (adaptive)
Weight generation scheme         WeightScheme... mBecke (2022)
Basis function cutoff            BFCut       ... 1.0000e-11
Integration weight cutoff        WCut        ... 1.0000e-14
Partially contracted basis set               ... on
Rotationally invariant grid construction     ... off
Angular grids for H and He will be reduced by one unit

Total number of grid points                  ...   114458
Total number of batches                      ...      915
Average number of points per batch           ...      125
Average number of grid points per atom       ...     3093
UseSFitting                                  ... on
Grids setup in   7.1 sec
Initializing property integral containers    ... done (  0.0 sec)

SHARK setup successfully completed in   7.6 seconds

Maximum memory used throughout the entire STARTUP-calculation: 77.0 MB
Occupation numbers will be reassigned to an Aufbau configuration
             **** ENERGY FILE WAS UPDATED (C:\Users\jabreumiranda\Radioprotection_Pipeline_Project\06_Quantum_DFT_ORCA\CHEMBL1683055_neutral_opt.en.tmp) ****
Finished Guess after   0.2 sec
Maximum memory used throughout the entire GUESS-calculation: 28.5 MB
--------------------
CPCM SOLVATION MODEL
--------------------
CPCM parameters:
  Epsilon                                         ...      80.1510
  Refrac                                          ...       1.3328
  Rsolv                                           ...       1.3000
  Surface type                                    ... GAUSSIAN VDW
  Discretization scheme                           ... Constant charge density
    Threshold for H atoms                         ...       5.0000 (charges/Ang^2)
    Threshold for non-H atoms                     ...       5.0000 (charges/Ang^2)
  Epsilon function type                           ...         CPCM
Solvent:                                          ... WATER
Radii:
  Scheme                                          ... Element-dependent radii
  Radius for N  used is    3.5149 Bohr (=   1.8600 Ang.)
  Radius for C  used is    3.8550 Bohr (=   2.0400 Ang.)
  Radius for H  used is    2.4944 Bohr (=   1.3200 Ang.)
Calculating surface                               ...        done! (  0.0s)
Cavity surface points                             ...         3366
Cavity Volume                                     ...    2402.6929
Cavity Surface-area                               ...    1209.9290
Calculating surface distance matrix               ...        done! (  0.1s)
Performing Cholesky decomposition & store         ...        done! (  0.6s)
Overall time for CPCM initialization              ...                 0.7s

----------------------------------------D-I-I-S--------------------------------------------
Iteration    Energy (Eh)           Delta-E    RMSDP     MaxDP     DIISErr   Damp  Time(sec)
-------------------------------------------------------------------------------------------
               ***  Starting incremental Fock matrix formation  ***
    1    -1004.3522557016460723     0.00e+00  1.01e-04  2.85e-03  1.26e-02  0.700  27.1
    2    -1004.3530099230495125    -7.54e-04  8.99e-05  2.53e-03  1.01e-02  0.700  11.0
                               ***Turning on AO-DIIS***
    3    -1004.3536172263604840    -6.07e-04  7.28e-05  2.03e-03  7.61e-03  0.700  10.9
    4    -1004.3540705031789457    -4.53e-04  1.84e-04  5.14e-03  5.53e-03  0.000  11.1
                              *** Initializing SOSCF ***
---------------------------------------S-O-S-C-F--------------------------------------
Iteration    Energy (Eh)           Delta-E    RMSDP     MaxDP     MaxGrad    Time(sec)
--------------------------------------------------------------------------------------
    5    -1004.3552169350643908    -1.15e-03  1.21e-05  2.66e-04  2.59e-04    12.2
               *** Restarting incremental Fock matrix formation ***
    6    -1004.3552209351162219    -4.00e-06  1.02e-05  2.81e-04  1.68e-04    26.2
    7    -1004.3552220735543870    -1.14e-06  3.78e-06  1.26e-04  2.59e-05    15.8
    8    -1004.3552220692738501     4.28e-09  1.74e-06  7.85e-05  2.16e-05    14.1
                 **** Energy Check signals convergence ****

               *****************************************************
               *                     SUCCESS                       *
               *           SCF CONVERGED AFTER   8 CYCLES          *
               *****************************************************

Recomputing exchange energy using gridx3       ... done (   41.358 sec)
Old exchange energy                            :    -27.199726128 Eh
New exchange energy                            :    -27.199765426 Eh
Exchange energy change after final integration :     -0.000039298 Eh
Total energy after final integration           :  -1004.355261442 Eh
             **** ENERGY FILE WAS UPDATED (C:\Users\jabreumiranda\Radioprotection_Pipeline_Project\06_Quantum_DFT_ORCA\CHEMBL1683055_neutral_opt.en.tmp) ****

----------------
TOTAL SCF ENERGY
----------------

Total Energy       :      -1004.35526144179983 Eh          -27329.89609 eV

Components:
Nuclear Repulsion  :       1739.32492549570702 Eh           47329.43740 eV
Electronic Energy  :      -2743.64480632963887 Eh          -74658.37074 eV
One Electron Energy:      -4815.75419552439234 Eh         -131043.33377 eV
Two Electron Energy:       2072.10938919475348 Eh           56384.96304 eV
CPCM Dielectric    :         -0.03534130969843 Eh              -0.96169 eV

Virial components:
Potential Energy   :      -1998.54245560669347 Eh          -54383.10500 eV
Kinetic Energy     :        994.18719416489364 Eh           27053.20891 eV
Virial Ratio       :          2.01022751785236

DFT components:
N(Alpha)           :       80.999983354885 electrons
N(Beta)            :       80.999983354885 electrons
N(Total)           :      161.999966709769 electrons
E(X)               :     -108.113288437994 Eh       
E(C)               :       -6.529806642163 Eh       
E(XC)              :     -114.643095080157 Eh       

CPCM Solvation Model Properties:
Surface-charge          :         -0.02718721329704
Corrected charge        :          0.00000000000000
Outlying charge corr.   :          0.00003725409040 Eh               0.00101 eV
Free-energy (cav+disp)  :  This term is not implemented in the current solvation scheme

---------------
SCF CONVERGENCE
---------------

  Last Energy change         ...   -4.2805e-09  Tolerance :   1.0000e-08
  Last MAX-Density change    ...    7.8514e-05  Tolerance :   1.0000e-07
  Last RMS-Density change    ...    1.7410e-06  Tolerance :   5.0000e-09
  Last DIIS Error            ...    2.5937e-04  Tolerance :   5.0000e-07
  Last Orbital Gradient      ...    2.1574e-05  Tolerance :   1.0000e-05
  Last Orbital Rotation      ...    5.0364e-05  Tolerance :   1.0000e-05


Total SCF time: 0 days 0 hours 3 min 3 sec 
Finished LeanSCF after 183.6 sec

Maximum memory used throughout the entire LEANSCF-calculation: 110.1 MB

------------------------------------------------------------------------------
                         ORCA PROPERTY INTEGRAL CALCULATIONS
------------------------------------------------------------------------------

GBWName                                   ... C:\Users\jabreumiranda\Radioprotection_Pipeline_Project\06_Quantum_DFT_ORCA\CHEMBL1683055_neutral_opt.gbw
Number of atoms                           ...     37
Number of basis functions                 ...    401
Max core memory                           ...   2000 MB

Dipole integrals                          ... YES
Quadrupole integrals                      ...  NO
Linear momentum integrals                 ...  NO
Angular momentum integrals                ...  NO
Higher moments length integrals           ...  NO
Higher moments velocity integrals         ...  NO
Kinetic energy integrals                  ...  NO
GIAO right hand sides                     ...  NO
GIAO dipole derivative integrals          ...  NO
SOC integrals                             ...  NO
EPR diamagnetic integrals (GIAO)          ...  NO
EPR gauge integrals                       ...  NO
Field gradient integrals                  ...  NO (   0 nuclei)
Spin-dipole/Fermi contact integrals       ...  NO (   0 nuclei)
Contact density integrals                 ...  NO (   0 nuclei)
Nucleus-orbit integrals                   ...  NO (   0 nuclei)
Geometric perturbations                   ...  NO (  37 nuclei)

Choice of electric origin   ... Center of mass
Position of electric origin ... (  0.0609,  0.0361,  0.0525) 
Choice of magnetic origin   ... GIAO
Position of magnetic origin ... (  0.0000,  0.0000,  0.0000) 

Calculating integrals                     ... Electric Dipole (Length)     done (  0.0 sec)

Property integrals calculated in   0.0 sec

Maximum memory used throughout the entire PROPINT-calculation: 26.9 MB


-------------------------------------------------------------------------------
                          DFT DISPERSION CORRECTION                            
                                                                               
                              DFTD3 V3.1  Rev 1                                
                          USING Becke-Johnson damping                          
-------------------------------------------------------------------------------
-------------------------   ----------------
Dispersion correction           -0.088085918
-------------------------   ----------------


-------------------------   --------------------
FINAL SINGLE POINT ENERGY     -1004.443347359638
-------------------------   --------------------

------------------------------------------------------------------------------
                         ORCA SCF GRADIENT CALCULATION
------------------------------------------------------------------------------

Nuc. rep. gradient        (SHARK) ... done (  0.0 sec)
HCore & Overlap gradient  (SHARK) ... done (  1.1 sec)
Split-RIJ-J gradient      (SHARK) ... done (  6.4 sec)
COSX-gradient                     ... done ( 93.1 sec)
XC gradient                       ... done ( 15.6 sec)
CPCM gradient                     ... done (  5.4 sec)
Dispersion correction             ... done (  0.1 sec)

-------------------
DISPERSION GRADIENT
-------------------

   1   N   :    0.000460346   -0.000208990   -0.000122340
   2   C   :   -0.002631150    0.001893335    0.000906578
   3   N   :    0.000014625   -0.000112311   -0.000021267
   4   C   :    0.001188401   -0.002302412   -0.000768935
   5   C   :    0.000207696    0.000310017    0.000023489
   6   C   :    0.000556809    0.000174802   -0.000084541
   7   C   :    0.000420063   -0.000119497   -0.000108159
   8   C   :   -0.000180146    0.000036850    0.000060210
   9   C   :   -0.000253070    0.000216131    0.000280853
  10   C   :   -0.000074720    0.000348305    0.000361448
  11   C   :   -0.000415068   -0.000156843   -0.000089719
  12   N   :   -0.000134698    0.000233226    0.000237552
  13   C   :    0.000376856    0.000105707    0.000047738
  14   C   :   -0.000426212    0.000150828    0.000199347
  15   C   :   -0.000365958   -0.000007249    0.000042533
  16   C   :   -0.000263635   -0.000206169   -0.000158349
  17   C   :   -0.000162204   -0.000348159   -0.000305393
  18   C   :    0.000334242    0.000143248    0.000090569
  19   N   :    0.000099922   -0.000220748   -0.000225407
  20   C   :   -0.000595107   -0.000078467   -0.000018439
  21   C   :   -0.000121682   -0.000117864   -0.000139435
  22   C   :    0.000133001   -0.000137991   -0.000020015
  23   C   :    0.001852078    0.000174012   -0.000244040
  24   N   :    0.000170169    0.000395314    0.000080524
  25   H   :    0.000206025   -0.000051699   -0.000057432
  26   H   :    0.000169836   -0.000146108   -0.000087360
  27   H   :    0.000128212    0.000293643    0.000048742
  28   H   :    0.000107864    0.000336081    0.000041091
  29   H   :   -0.000018054    0.000242946    0.000264356
  30   H   :   -0.000027716    0.000236321    0.000228430
  31   H   :   -0.000206796    0.000163023    0.000181234
  32   H   :   -0.000278081    0.000012335    0.000049059
  33   H   :   -0.000181863   -0.000169303   -0.000134770
  34   H   :    0.000000905   -0.000232961   -0.000219264
  35   H   :   -0.000039857   -0.000205970   -0.000227054
  36   H   :   -0.000031065   -0.000313272   -0.000041126
  37   H   :   -0.000019968   -0.000330111   -0.000070706

Difference to translation invariance:
           :    0.0000000000    0.0000000000    0.0000000000

Difference to rotation invariance:
           :    0.0000000000   -0.0000000000    0.0000000000

Norm of the Dispersion gradient    ...    0.0051959676
RMS gradient                       ...    0.0004931794
MAX gradient                       ...    0.0026311496

------------------
CARTESIAN GRADIENT
------------------

   1   N   :    0.000647029   -0.000716891    0.000667168
   2   C   :   -0.000672623    0.000641853   -0.000156855
   3   N   :    0.000115157   -0.000508730   -0.000332458
   4   C   :   -0.000411756    0.000185988    0.000140667
   5   C   :    0.000150219   -0.000401764   -0.000070262
   6   C   :    0.000290305    0.000657459    0.000164641
   7   C   :    0.000399919   -0.000033601    0.000283684
   8   C   :   -0.000466208   -0.000210645   -0.000417409
   9   C   :   -0.000185832    0.000577284    0.000536062
  10   C   :    0.000283465    0.000099167    0.000066168
  11   C   :   -0.000218432   -0.000148387   -0.000142132
  12   N   :    0.000230075   -0.000539137   -0.000495834
  13   C   :    0.000502842    0.000153576    0.000069293
  14   C   :   -0.000500484   -0.000136825   -0.000038222
  15   C   :    0.000004154    0.000160165    0.000141702
  16   C   :    0.000125205   -0.000106055   -0.000120842
  17   C   :   -0.000413902   -0.000173911   -0.000140645
  18   C   :    0.000378682    0.000146964    0.000117525
  19   N   :   -0.000282602    0.000548724    0.000506855
  20   C   :   -0.000391931   -0.000011456    0.000056688
  21   C   :    0.000061818   -0.000340337   -0.000069981
  22   C   :    0.000076064   -0.000289255   -0.000346533
  23   C   :    0.000259591   -0.000078363    0.000034414
  24   N   :    0.000296383    0.000371471    0.000103771
  25   H   :   -0.000075302    0.000192927    0.000012163
  26   H   :   -0.000241202    0.000234070   -0.000442105
  27   H   :    0.000052649   -0.000065157   -0.000021399
  28   H   :   -0.000346839   -0.000307523   -0.000038397
  29   H   :    0.000235414   -0.000234597   -0.000263296
  30   H   :   -0.000109776   -0.000043393   -0.000039746
  31   H   :    0.000052883   -0.000001482   -0.000001405
  32   H   :    0.000022597    0.000001726   -0.000006842
  33   H   :    0.000018444    0.000013075    0.000004094
  34   H   :    0.000040266    0.000035158    0.000012631
  35   H   :    0.000256922    0.000152835    0.000018034
  36   H   :   -0.000191737    0.000169214    0.000134644
  37   H   :    0.000008544    0.000005854    0.000074160

Difference to translation invariance:
           :    0.0000000000    0.0000000000    0.0000000000

Difference to rotation invariance:
           :    0.0006088361   -0.0004631611    0.0002234719

Norm of the Cartesian gradient     ...    0.0030246019
RMS gradient                       ...    0.0002870825
MAX gradient                       ...    0.0007168907

-------
TIMINGS
-------

Total SCF gradient time     ....      121.715 sec

Densities                   ....       0.005 sec  (  0.0%)
One electron gradient       ....       1.067 sec  (  0.9%)
RI-J Coulomb gradient       ....       6.388 sec  (  5.2%)
COSX gradient               ....      93.096 sec  ( 76.5%)
XC gradient                 ....      15.649 sec  ( 12.9%)
CPCM gradient               ....       5.422 sec  (  4.5%)
   A-Matrix (El+Nuc)        ....       0.571 sec  (  0.5%)
   Potential                ....       4.851 sec  (  4.0%)

Maximum memory used throughout the entire SCFGRAD-calculation: 59.3 MB
------------------------------------------------------------------------------
                         ORCA GEOMETRY RELAXATION STEP
------------------------------------------------------------------------------

Reading the OPT-File                    .... done
Getting information on internals        .... done
Copying old internal coords+grads       .... done
Making the new internal coordinates     .... (2022 redundants) done
Validating the new internal coordinates .... (2022 redundants) done
Calculating the B-matrix                .... done
Calculating the G,G- and P matrices     .... done
Transforming gradient to internals      .... done
Projecting the internal gradient        .... done
Number of atoms                         ....  37
Number of internal coordinates          .... 207
Current Energy                          .... -1004.443347360 Eh
Current gradient norm                   ....     0.003024602 Eh/bohr
Maximum allowed component of the step   ....  0.300
Current trust radius                    ....  0.700
Updating the Hessian (BFGS)             .... done
Forming the augmented Hessian           .... done
Diagonalizing the augmented Hessian     .... done
Last element of RFO vector              ....  0.999489674
Lowest eigenvalues of augmented Hessian:
 -0.000029932  0.007225368  0.020710172  0.021566153  0.023542013
Length of the computed step             ....  0.031959864
The final length of the internal step   ....  0.031959864
Converting the step to Cartesian space:
 Initial RMS(Int)=    0.0022213641
Transforming coordinates:
 Iter   0:  RMS(Cart)=    0.0075597963 RMS(Int)=    0.4366981133
done
Storing new coordinates                 .... done
The predicted energy change is          ....    -0.000014981
Previously predicted energy change      ....    -0.000067021
Actually observed energy change         ....    -0.000079977
Ratio of predicted to observed change   ....     1.193309980
New trust radius                        ....     0.700000000

                                .--------------------.
          ----------------------|Geometry convergence|-------------------------
          Item                value                   Tolerance       Converged
          ---------------------------------------------------------------------
          Energy change      -0.0000799768            0.0000050000      NO
          RMS gradient        0.0001541714            0.0001000000      NO
          MAX gradient        0.0005599307            0.0003000000      NO
          RMS step            0.0022213641            0.0020000000      NO
          MAX step            0.0180744441            0.0040000000      NO
          -------------------------------------------------------------------------
          ........................................................
          Max(Bonds)      0.0007      Max(Angles)    0.17
          Max(Dihed)        1.04      Max(Improp)    0.00
          ---------------------------------------------------------------------

The optimization has not yet converged - more geometry cycles are needed


    ---------------------------------------------------------------------------
                         Redundant Internal Coordinates
                            (Angstroem and degrees)

        Definition                    Value    dE/dq     Step     New-Value
    ----------------------------------------------------------------------------
     1. B(C   1,N   0)                1.3595  0.000374 -0.0007    1.3588   
     2. B(N   2,C   1)                1.3256 -0.000508  0.0005    1.3261   
     3. B(C   3,N   2)                1.3830  0.000136 -0.0005    1.3825   
     4. B(C   4,C   3)                1.4012 -0.000243  0.0002    1.4014   
     5. B(C   5,C   4)                1.3963  0.000073 -0.0001    1.3962   
     6. B(C   6,C   5)                1.4180  0.000077  0.0000    1.4180   
     7. B(C   7,C   6)                1.4817  0.000315 -0.0007    1.4810   
     8. B(C   8,C   7)                1.4434  0.000216 -0.0002    1.4433   
     9. B(C   9,C   8)                1.3687 -0.000052  0.0001    1.3688   
    10. B(C  10,C   9)                1.4313  0.000278 -0.0005    1.4308   
    11. B(N  11,C  10)                1.3366 -0.000272  0.0002    1.3368   
    12. B(C  12,N  11)                1.3419 -0.000346  0.0004    1.3424   
    13. B(C  13,C  12)                1.4303  0.000365 -0.0007    1.4296   
    14. B(C  14,C  13)                1.3733 -0.000112  0.0003    1.3736   
    15. B(C  15,C  14)                1.4297  0.000142 -0.0004    1.4293   
    16. B(C  16,C  15)                1.3731 -0.000095  0.0002    1.3734   
    17. B(C  17,C  16)                1.4313  0.000329 -0.0006    1.4307   
    18. B(C  17,C  12)                1.4488 -0.000353 -0.0001    1.4487   
    19. B(N  18,C  17)                1.3404 -0.000292  0.0003    1.3407   
    20. B(C  19,N  18)                1.3413 -0.000297  0.0004    1.3416   
    21. B(C  19,C  10)                1.4490 -0.000299 -0.0002    1.4488   
    22. B(C  20,C  19)                1.4259  0.000302 -0.0007    1.4252   
    23. B(C  20,C   7)                1.3838 -0.000031  0.0003    1.3841   
    24. B(C  21,C   6)                1.4129  0.000029  0.0003    1.4131   
    25. B(C  22,C  21)                1.3879  0.000053 -0.0002    1.3877   
    26. B(C  22,C   3)                1.4255 -0.000138 -0.0001    1.4254   
    27. B(N  23,C  22)                1.3862 -0.000210  0.0002    1.3864   
    28. B(N  23,C   1)                1.3759 -0.000352  0.0002    1.3761   
    29. B(H  24,N   0)                1.0153  0.000036 -0.0001    1.0152   
    30. B(H  25,N   0)                1.0157  0.000081 -0.0002    1.0155   
    31. B(H  26,C   4)                1.0925 -0.000028 -0.0000    1.0925   
    32. B(H  27,C   5)                1.0913 -0.000127  0.0001    1.0914   
    33. B(H  28,C   8)                1.0910 -0.000119  0.0001    1.0911   
    34. B(H  29,C   9)                1.0922 -0.000016  0.0000    1.0922   
    35. B(H  30,C  13)                1.0922 -0.000017  0.0000    1.0922   
    36. B(H  31,C  14)                1.0927 -0.000023  0.0000    1.0927   
    37. B(H  32,C  15)                1.0928 -0.000023  0.0000    1.0928   
    38. B(H  33,C  16)                1.0922 -0.000018  0.0000    1.0922   
    39. B(H  34,C  20)                1.0910 -0.000032  0.0000    1.0910   
    40. B(H  35,C  21)                1.0909 -0.000050  0.0000    1.0909   
    41. B(H  36,N  23)                1.0145 -0.000019 -0.0000    1.0145   
    42. A(C   1,N   0,H  24)          115.19 -0.000229    0.15    115.34   
    43. A(H  24,N   0,H  25)          114.65  0.000201    0.13    114.78   
    44. A(C   1,N   0,H  25)          117.57 -0.000407    0.15    117.72   
    45. A(N   2,C   1,N  23)          112.94  0.000062   -0.02    112.92   
    46. A(N   0,C   1,N  23)          121.71 -0.000063    0.02    121.74   
    47. A(N   0,C   1,N   2)          125.28 -0.000001   -0.00    125.28   
    48. A(C   1,N   2,C   3)          105.10  0.000021   -0.00    105.10   
    49. A(N   2,C   3,C  22)          110.28 -0.000119    0.03    110.31   
    50. A(C   4,C   3,C  22)          118.86  0.000173   -0.05    118.81   
    51. A(N   2,C   3,C   4)          130.86 -0.000054    0.02    130.88   
    52. A(C   3,C   4,C   5)          118.63  0.000027    0.01    118.63   
    53. A(C   5,C   4,H  26)          120.89  0.000073   -0.03    120.87   
    54. A(C   3,C   4,H  26)          120.48 -0.000100    0.02    120.50   
    55. A(C   4,C   5,C   6)          122.32 -0.000201    0.06    122.38   
    56. A(C   4,C   5,H  27)          118.66  0.000560   -0.15    118.50   
    57. A(C   6,C   5,H  27)          119.00 -0.000359    0.09    119.09   
    58. A(C   5,C   6,C   7)          120.57 -0.000134    0.07    120.64   
    59. A(C   5,C   6,C  21)          119.29  0.000172   -0.09    119.20   
    60. A(C   7,C   6,C  21)          120.14 -0.000039    0.02    120.16   
    61. A(C   8,C   7,C  20)          118.26  0.000234   -0.11    118.15   
    62. A(C   6,C   7,C  20)          121.72  0.000182    0.01    121.73   
    63. A(C   6,C   7,C   8)          120.02 -0.000416    0.09    120.11   
    64. A(C   7,C   8,H  28)          118.70 -0.000345    0.06    118.76   
    65. A(C   9,C   8,H  28)          119.32  0.000496   -0.10    119.22   
    66. A(C   7,C   8,C   9)          121.96 -0.000151    0.04    122.00   
    67. A(C  10,C   9,H  29)          117.81 -0.000095   -0.03    117.78   
    68. A(C   8,C   9,H  29)          121.59  0.000156    0.01    121.60   
    69. A(C   8,C   9,C  10)          120.60 -0.000061    0.02    120.62   
    70. A(N  11,C  10,C  19)          121.39 -0.000198    0.04    121.43   
    71. A(C   9,C  10,C  19)          118.28  0.000163   -0.04    118.24   
    72. A(C   9,C  10,N  11)          120.33  0.000035   -0.00    120.33   
    73. A(C  10,N  11,C  12)          117.80  0.000371   -0.06    117.75   
    74. A(N  11,C  12,C  13)          120.02  0.000176   -0.03    119.98   
    75. A(C  13,C  12,C  17)          119.04 -0.000010    0.01    119.05   
    76. A(N  11,C  12,C  17)          120.94 -0.000166    0.02    120.97   
    77. A(C  14,C  13,H  30)          121.94  0.000045    0.04    121.97   
    78. A(C  12,C  13,C  14)          120.31  0.000013   -0.00    120.30   
    79. A(C  12,C  13,H  30)          117.76 -0.000059   -0.04    117.72   
    80. A(C  13,C  14,C  15)          120.69 -0.000011   -0.01    120.68   
    81. A(C  13,C  14,H  31)          120.10  0.000002    0.04    120.14   
    82. A(C  15,C  14,H  31)          119.21  0.000008   -0.03    119.17   
    83. A(C  16,C  15,H  32)          120.04  0.000003    0.04    120.08   
    84. A(C  14,C  15,H  32)          119.17  0.000011   -0.04    119.14   
    85. A(C  14,C  15,C  16)          120.79 -0.000013   -0.01    120.79   
    86. A(C  15,C  16,H  33)          121.94  0.000047    0.04    121.98   
    87. A(C  17,C  16,H  33)          117.73 -0.000058   -0.04    117.70   
    88. A(C  15,C  16,C  17)          120.33  0.000011    0.00    120.33   
    89. A(C  16,C  17,N  18)          120.00  0.000171   -0.03    119.96   
    90. A(C  12,C  17,N  18)          121.16 -0.000181    0.03    121.19   
    91. A(C  12,C  17,C  16)          118.84  0.000010    0.00    118.85   
    92. A(C  17,N  18,C  19)          117.88  0.000366   -0.06    117.82   
    93. A(N  18,C  19,C  20)          119.94  0.000189   -0.04    119.90   
    94. A(C  10,C  19,C  20)          119.24  0.000002    0.02    119.26   
    95. A(C  10,C  19,N  18)          120.82 -0.000191    0.02    120.84   
    96. A(C  19,C  20,H  34)          116.91  0.000393   -0.17    116.74   
    97. A(C   7,C  20,H  34)          121.41 -0.000206    0.10    121.51   
    98. A(C   7,C  20,C  19)          121.66 -0.000187    0.07    121.73   
    99. A(C   6,C  21,H  35)          121.01 -0.000223    0.06    121.07   
   100. A(C   6,C  21,C  22)          118.00 -0.000131    0.05    118.06   
   101. A(C  22,C  21,H  35)          120.96  0.000353   -0.11    120.85   
   102. A(C  21,C  22,N  23)          132.61  0.000114   -0.02    132.59   
   103. A(C   3,C  22,N  23)          104.49 -0.000073   -0.01    104.49   
   104. A(C   3,C  22,C  21)          122.90 -0.000040    0.02    122.92   
   105. A(C   1,N  23,C  22)          107.19  0.000110   -0.00    107.19   
   106. A(C  22,N  23,H  36)          126.74 -0.000064    0.00    126.74   
   107. A(C   1,N  23,H  36)          126.06 -0.000046    0.01    126.06   
   108. D(N   2,C   1,N   0,H  24)    -17.15 -0.000087   -0.30    -17.44   
   109. D(N  23,C   1,N   0,H  25)     26.13  0.000472   -1.04     25.09   
   110. D(N  23,C   1,N   0,H  24)    166.07 -0.000038   -0.42    165.65   
   111. D(N   2,C   1,N   0,H  25)   -157.09  0.000423   -0.91   -158.01   
   112. D(C   3,N   2,C   1,N   0)   -176.83  0.000057   -0.15   -176.98   
   113. D(C   3,N   2,C   1,N  23)      0.19  0.000009   -0.03      0.16   
   114. D(C   4,C   3,N   2,C   1)    179.52 -0.000008    0.03    179.54   
   115. D(C  22,C   3,N   2,C   1)     -0.32 -0.000010    0.04     -0.28   
   116. D(H  26,C   4,C   3,N   2)      0.65  0.000009   -0.01      0.64   
   117. D(H  26,C   4,C   3,C  22)   -179.52  0.000010   -0.02   -179.55   
   118. D(C   5,C   4,C   3,C  22)      0.23 -0.000005    0.01      0.24   
   119. D(C   5,C   4,C   3,N   2)   -179.60 -0.000006    0.03   -179.57   
   120. D(H  27,C   5,C   4,C   3)   -178.68  0.000031   -0.02   -178.70   
   121. D(C   6,C   5,C   4,C   3)     -0.44  0.000012   -0.02     -0.45   
   122. D(C   6,C   5,C   4,H  26)    179.31 -0.000004    0.02    179.33   
   123. D(H  27,C   5,C   4,H  26)      1.07  0.000015    0.02      1.09   
   124. D(C  21,C   6,C   5,H  27)    178.53 -0.000023    0.04    178.57   
   125. D(C  21,C   6,C   5,C   4)      0.29 -0.000019    0.04      0.33   
   126. D(C   7,C   6,C   5,H  27)     -0.70  0.000013   -0.06     -0.76   
   127. D(C   7,C   6,C   5,C   4)   -178.94  0.000017   -0.06   -178.99   
   128. D(C  20,C   7,C   6,C  21)    -27.88  0.000097    0.25    -27.63   
   129. D(C   8,C   7,C   6,C  21)    151.76  0.000066    0.37    152.12   
   130. D(C  20,C   7,C   6,C   5)    151.34  0.000062    0.35    151.69   
   131. D(C   8,C   7,C   6,C   5)    -29.02  0.000031    0.46    -28.56   
   132. D(H  28,C   8,C   7,C  20)    178.58  0.000007   -0.08    178.50   
   133. D(H  28,C   8,C   7,C   6)     -1.07  0.000038   -0.19     -1.26   
   134. D(C   9,C   8,C   7,C  20)      0.06  0.000005   -0.07     -0.01   
   135. D(C   9,C   8,C   7,C   6)   -179.59  0.000035   -0.18   -179.78   
   136. D(H  29,C   9,C   8,C   7)    179.31 -0.000002    0.02    179.33   
   137. D(C  10,C   9,C   8,H  28)   -178.61  0.000011    0.02   -178.59   
   138. D(C  10,C   9,C   8,C   7)     -0.09  0.000002    0.01     -0.08   
   139. D(H  29,C   9,C   8,H  28)      0.80  0.000008    0.03      0.83   
   140. D(C  19,C  10,C   9,H  29)   -179.31 -0.000010    0.05   -179.26   
   141. D(C  19,C  10,C   9,C   8)      0.12 -0.000012    0.06      0.17   
   142. D(N  11,C  10,C   9,H  29)      0.61 -0.000017    0.06      0.67   
   143. D(N  11,C  10,C   9,C   8)   -179.97 -0.000019    0.07   -179.90   
   144. D(C  12,N  11,C  10,C  19)     -0.31 -0.000010    0.03     -0.28   
   145. D(C  12,N  11,C  10,C   9)    179.78 -0.000003    0.01    179.79   
   146. D(C  17,C  12,N  11,C  10)     -0.01 -0.000006    0.02      0.02   
   147. D(C  13,C  12,N  11,C  10)   -179.94 -0.000004    0.02   -179.93   
   148. D(H  30,C  13,C  12,C  17)    179.96 -0.000003    0.00    179.96   
   149. D(H  30,C  13,C  12,N  11)     -0.10 -0.000004    0.01     -0.09   
   150. D(C  14,C  13,C  12,C  17)     -0.08 -0.000006    0.01     -0.07   
   151. D(C  14,C  13,C  12,N  11)    179.86 -0.000007    0.02    179.88   
   152. D(H  31,C  14,C  13,H  30)     -0.02 -0.000001    0.01     -0.02   
   153. D(H  31,C  14,C  13,C  12)   -179.98  0.000002   -0.00   -179.98   
   154. D(C  15,C  14,C  13,H  30)    179.97 -0.000002    0.01    179.98   
   155. D(C  15,C  14,C  13,C  12)      0.01  0.000001   -0.00      0.01   
   156. D(H  32,C  15,C  14,H  31)      0.02 -0.000002    0.01      0.02   
   157. D(H  32,C  15,C  14,C  13)   -179.98 -0.000001    0.01   -179.97   
   158. D(C  16,C  15,C  14,H  31)   -179.98 -0.000000    0.00   -179.98   
   159. D(C  16,C  15,C  14,C  13)      0.03  0.000001   -0.00      0.03   
   160. D(H  33,C  16,C  15,H  32)     -0.01 -0.000000    0.00     -0.00   
   161. D(H  33,C  16,C  15,C  14)    179.99 -0.000002    0.01    179.99   
   162. D(C  17,C  16,C  15,H  32)   -180.00  0.000004   -0.02   -180.01   
   163. D(C  17,C  16,C  15,C  14)     -0.00  0.000003   -0.01     -0.01   
   164. D(C  12,C  17,C  16,H  33)    179.94 -0.000004    0.01    179.95   
   165. D(C  12,C  17,C  16,C  15)     -0.06 -0.000008    0.02     -0.04   
   166. D(N  18,C  17,C  12,C  13)   -179.88  0.000008   -0.03   -179.90   
   167. D(N  18,C  17,C  12,N  11)      0.18  0.000010   -0.03      0.15   
   168. D(C  16,C  17,C  12,C  13)      0.11  0.000009   -0.02      0.08   
   169. D(N  18,C  17,C  16,C  15)    179.92 -0.000007    0.03    179.94   
   170. D(C  16,C  17,C  12,N  11)   -179.83  0.000011   -0.03   -179.86   
   171. D(N  18,C  17,C  16,H  33)     -0.07 -0.000003    0.01     -0.06   
   172. D(C  19,N  18,C  17,C  16)    179.99  0.000003   -0.02    179.98   
   173. D(C  19,N  18,C  17,C  12)     -0.03  0.000003   -0.01     -0.04   
   174. D(C  20,C  19,N  18,C  17)   -179.78 -0.000020    0.07   -179.71   
   175. D(C  10,C  19,N  18,C  17)     -0.28 -0.000019    0.06     -0.22   
   176. D(C  20,C  19,C  10,N  11)    179.98  0.000024   -0.08    179.89   
   177. D(C  20,C  19,C  10,C   9)     -0.10  0.000017   -0.07     -0.18   
   178. D(N  18,C  19,C  10,N  11)      0.47  0.000021   -0.07      0.40   
   179. D(N  18,C  19,C  10,C   9)   -179.61  0.000014   -0.06   -179.67   
   180. D(H  34,C  20,C  19,N  18)      1.04  0.000018   -0.02      1.02   
   181. D(H  34,C  20,C  19,C  10)   -178.47  0.000018   -0.00   -178.47   
   182. D(C   7,C  20,C  19,N  18)    179.59 -0.000011    0.00    179.59   
   183. D(C   7,C  20,C  19,C  10)      0.08 -0.000011    0.02      0.09   
   184. D(H  34,C  20,C   7,C   8)    178.43 -0.000022    0.07    178.49   
   185. D(H  34,C  20,C   7,C   6)     -1.92 -0.000054    0.18     -1.75   
   186. D(C  19,C  20,C   7,C   8)     -0.05  0.000000    0.05      0.00   
   187. D(C  19,C  20,C   7,C   6)    179.60 -0.000033    0.16    179.76   
   188. D(H  35,C  21,C   6,C   7)     -2.44 -0.000047    0.11     -2.33   
   189. D(H  35,C  21,C   6,C   5)    178.33 -0.000010    0.02    178.34   
   190. D(C  22,C  21,C   6,C   7)    179.29 -0.000016    0.04    179.33   
   191. D(C  22,C  21,C   6,C   5)      0.06  0.000021   -0.06      0.00   
   192. D(N  23,C  22,C  21,H  35)      1.02  0.000028   -0.04      0.98   
   193. D(N  23,C  22,C  21,C   6)    179.29 -0.000014    0.04    179.32   
   194. D(C   3,C  22,C  21,H  35)   -178.54  0.000025   -0.02   -178.55   
   195. D(C   3,C  22,C  21,C   6)     -0.27 -0.000016    0.06     -0.21   
   196. D(N  23,C  22,C   3,C   4)   -179.54  0.000006   -0.02   -179.56   
   197. D(N  23,C  22,C   3,N   2)      0.32  0.000007   -0.03      0.29   
   198. D(C  21,C  22,C   3,C   4)      0.12  0.000009   -0.03      0.09   
   199. D(C  21,C  22,C   3,N   2)    179.98  0.000010   -0.05    179.93   
   200. D(H  36,N  23,C  22,C  21)     -1.09 -0.000046    0.18     -0.91   
   201. D(H  36,N  23,C  22,C   3)    178.52 -0.000043    0.16    178.68   
   202. D(C   1,N  23,C  22,C  21)   -179.81 -0.000005    0.03   -179.78   
   203. D(C   1,N  23,C  22,C   3)     -0.19 -0.000002    0.01     -0.18   
   204. D(H  36,N  23,C   1,N   2)   -178.72  0.000037   -0.14   -178.86   
   205. D(H  36,N  23,C   1,N   0)     -1.58 -0.000008   -0.03     -1.60   
   206. D(C  22,N  23,C   1,N   2)      0.00 -0.000004    0.01      0.02   
   207. D(C  22,N  23,C   1,N   0)    177.15 -0.000049    0.12    177.27   
    ----------------------------------------------------------------------------

Geometry step timings:
Preparation and reading OPT file:      0.001 s ( 6.667 %)
Internal coordinates            :      0.000 s ( 0.000 %)
B/P matrices and projection     :      0.004 s (26.667 %)
Hessian update/contruction      :      0.004 s (26.667 %)
Making the step                 :      0.002 s (13.333 %)
Converting the step to Cartesian:      0.001 s ( 6.667 %)
Storing new data                :      0.000 s ( 0.000 %)
Checking convergence            :      0.000 s ( 0.000 %)
Final printing                  :      0.003 s (20.000 %)
Total time                      :      0.015 s

Time for energy+gradient        :    314.006 s
Time for complete geometry iter :    314.129 s

         *************************************************************
         *                GEOMETRY OPTIMIZATION CYCLE   7            *
         *************************************************************
---------------------------------
CARTESIAN COORDINATES (ANGSTROEM)
---------------------------------
  N      7.082433   -1.701138   -1.202421
  C      5.982083   -0.966847   -0.891757
  N      5.985576    0.319643   -0.570202
  C      4.669674    0.619515   -0.270446
  C      4.072979    1.819071    0.140635
  C      2.698539    1.832986    0.385988
  C      1.886694    0.681588    0.225093
  C      0.428324    0.745406    0.474908
  C     -0.103092    1.695037    1.422994
  C     -1.443220    1.784086    1.686956
  C     -2.375687    0.927407    1.020809
  N     -3.683443    1.020782    1.281514
  C     -4.512328    0.194690    0.623865
  C     -5.920241    0.254706    0.864713
  C     -6.774669   -0.585692    0.193597
  C     -6.273127   -1.531464   -0.753415
  C     -4.927350   -1.620891   -1.012310
  C     -4.002893   -0.764413   -0.334911
  N     -2.690557   -0.858715   -0.592435
  C     -1.862258   -0.034462    0.066739
  C     -0.459375   -0.092611   -0.177440
  C      2.483235   -0.529722   -0.191766
  C      3.850863   -0.536702   -0.426905
  N      4.729675   -1.532966   -0.823397
  H      7.908009   -1.163948   -1.448484
  H      6.947169   -2.547089   -1.747718
  H      4.673211    2.723762    0.262252
  H      2.232387    2.773397    0.685143
  H      0.589961    2.343523    1.961132
  H     -1.837161    2.497888    2.413669
  H     -6.280539    0.985339    1.592270
  H     -7.850376   -0.537366    0.379525
  H     -6.975647   -2.187556   -1.273326
  H     -4.523007   -2.336292   -1.731773
  H     -0.120150   -0.814016   -0.922315
  H      1.892367   -1.440432   -0.299510
  H      4.501943   -2.503600   -1.011169

----------------------------
CARTESIAN COORDINATES (A.U.)
----------------------------
  NO LB      ZA    FRAG     MASS         X           Y           Z
   0 N     7.0000    0    14.007   13.383859   -3.214686   -2.272247
   1 C     6.0000    0    12.011   11.304498   -1.827076   -1.685176
   2 N     7.0000    0    14.007   11.311099    0.604037   -1.077526
   3 C     6.0000    0    12.011    8.824404    1.170713   -0.511069
   4 C     6.0000    0    12.011    7.696814    3.437546    0.265761
   5 C     6.0000    0    12.011    5.099499    3.463842    0.729412
   6 C     6.0000    0    12.011    3.565336    1.288014    0.425364
   7 C     6.0000    0    12.011    0.809415    1.408612    0.897447
   8 C     6.0000    0    12.011   -0.194816    3.203156    2.689069
   9 C     6.0000    0    12.011   -2.727291    3.371433    3.187884
  10 C     6.0000    0    12.011   -4.489398    1.752544    1.929049
  11 N     7.0000    0    14.007   -6.960698    1.928998    2.421711
  12 C     6.0000    0    12.011   -8.527064    0.367910    1.178934
  13 C     6.0000    0    12.011  -11.187635    0.481324    1.634070
  14 C     6.0000    0    12.011  -12.802269   -1.106798    0.365846
  15 C     6.0000    0    12.011  -11.854493   -2.894047   -1.423747
  16 C     6.0000    0    12.011   -9.311342   -3.063040   -1.912988
  17 C     6.0000    0    12.011   -7.564372   -1.444531   -0.632891
  18 N     7.0000    0    14.007   -5.084415   -1.622736   -1.119540
  19 C     6.0000    0    12.011   -3.519157   -0.065123    0.126119
  20 C     6.0000    0    12.011   -0.868094   -0.175009   -0.335312
  21 C     6.0000    0    12.011    4.692634   -1.001029   -0.362385
  22 C     6.0000    0    12.011    7.277076   -1.014220   -0.806734
  23 N     7.0000    0    14.007    8.937790   -2.896887   -1.555995
  24 H     1.0000    0     1.008   14.943972   -2.199543   -2.737239
  25 H     1.0000    0     1.008   13.128247   -4.813301   -3.302709
  26 H     1.0000    0     1.008    8.831088    5.147164    0.495584
  27 H     1.0000    0     1.008    4.218599    5.240961    1.294732
  28 H     1.0000    0     1.008    1.114864    4.428616    3.706003
  29 H     1.0000    0     1.008   -3.471731    4.720325    4.561174
  30 H     1.0000    0     1.008  -11.868499    1.862020    3.008954
  31 H     1.0000    0     1.008  -14.835061   -1.015474    0.717198
  32 H     1.0000    0     1.008  -13.182063   -4.133882   -2.406237
  33 H     1.0000    0     1.008   -8.547244   -4.414952   -3.272577
  34 H     1.0000    0     1.008   -0.227050   -1.538268   -1.742923
  35 H     1.0000    0     1.008    3.576056   -2.722021   -0.565993
  36 H     1.0000    0     1.008    8.507440   -4.731119   -1.910833

--------------------------------
INTERNAL COORDINATES (ANGSTROEM)
--------------------------------
 N      0   0   0     0.000000000000     0.00000000     0.00000000
 C      1   0   0     1.358847452505     0.00000000     0.00000000
 N      2   1   0     1.326071560980   125.27866946     0.00000000
 C      3   2   1     1.382524957702   105.09949925   183.02026835
 C      4   3   2     1.401415833822   130.88333730   179.54331486
 C      5   4   3     1.396236750909   118.63380263   180.43301075
 C      6   5   4     1.417990435293   122.38203892   359.54728668
 C      7   6   5     1.480987683408   120.64107486   181.00552723
 C      8   7   6     1.443284335474   120.11483323   331.44397079
 C      9   8   7     1.368776681076   122.00388627   180.22619190
 C     10   9   8     1.430784418830   120.61980608   359.91782189
 N     11  10   9     1.336754230646   120.32827190   180.10420546
 C     12  11  10     1.342379044760   117.74556992   179.79168025
 C     13  12  11     1.429625742931   119.98196353   180.07314563
 C     14  13  12     1.373575763279   120.30490818   179.87492370
 C     15  14  13     1.429286496931   120.68416310     0.00000000
 C     16  15  14     1.373368432901   120.78674231     0.02853605
 C     17  16  15     1.430749301013   120.32621092     0.00000000
 N     18  17  16     1.340685784687   119.96179205   179.94429839
 C     19  18  17     1.341634781325   117.82270416   179.97617994
 C      8   7   6     1.384138587751   121.73244811   151.68709921
 C      7   6   5     1.413117858370   119.19689736     0.33159002
 C     22   7   6     1.387712572156   118.05582104     0.00000000
 N      2   1   3     1.376114267239   121.73720858   183.09764636
 H      1   2   3     1.015232482614   115.33915872   342.55738901
 H      1   2   3     1.015518561034   117.71359054   201.99053538
 H      5   4   3     1.092490133324   120.50036149     0.64497487
 H      6   5   4     1.091404443097   118.50257988   181.30283203
 H      9   8   7     1.091076676419   118.76224426   358.73757503
 H     10   9   8     1.092161296012   121.59994025   179.33233362
 H     14  13  12     1.092235306766   117.72084659   359.90863199
 H     15  14  13     1.092726168193   120.14338710   180.01740386
 H     16  15  14     1.092839902593   119.13720247   180.02735173
 H     17  16  15     1.092208090618   121.97822802   179.99405655
 H     21   8   7     1.091026675854   121.51312396   358.25624294
 H     22   7   6     1.090929077938   121.06944218   178.34470933
 H     24   2   1     1.014519503058   126.06431783   358.39670234

---------------------------
INTERNAL COORDINATES (A.U.)
---------------------------
 N      0   0   0     0.000000000000     0.00000000     0.00000000
 C      1   0   0     2.567849543011     0.00000000     0.00000000
 N      2   1   0     2.505912084234   125.27866946     0.00000000
 C      3   2   1     2.612593543367   105.09949925   183.02026835
 C      4   3   2     2.648292125665   130.88333730   179.54331486
 C      5   4   3     2.638505077335   118.63380263   180.43301075
 C      6   5   4     2.679613583224   122.38203892   359.54728668
 C      7   6   5     2.798661129352   120.64107486   181.00552723
 C      8   7   6     2.727412127425   120.11483323   331.44397079
 C      9   8   7     2.586613065731   122.00388627   180.22619190
 C     10   9   8     2.703790708270   120.61980608   359.91782189
 N     11  10   9     2.526099404282   120.32827190   180.10420546
 C     12  11  10     2.536728762511   117.74556992   179.79168025
 C     13  12  11     2.701601128143   119.98196353   180.07314563
 C     14  13  12     2.595682016789   120.30490818   179.87492370
 C     15  14  13     2.700960046112   120.68416310     0.00000000
 C     16  15  14     2.595290219155   120.78674231     0.02853605
 C     17  16  15     2.703724345213   120.32621092     0.00000000
 N     18  17  16     2.533528964700   119.96179205   179.94429839
 C     19  18  17     2.535322308448   117.82270416   179.97617994
 C      8   7   6     2.615642862242   121.73244811   151.68709921
 C      7   6   5     2.670405747272   119.19689736     0.33159002
 C     22   7   6     2.622396713975   118.05582104     0.00000000
 N      2   1   3     2.600479094064   121.73720858   183.09764636
 H      1   2   3     1.918511354401   115.33915872   342.55738901
 H      1   2   3     1.919051964268   117.71359054   201.99053538
 H      5   4   3     2.064507155993   120.50036149     0.64497487
 H      6   5   4     2.062455498798   118.50257988   181.30283203
 H      9   8   7     2.061836109540   118.76224426   358.73757503
 H     10   9   8     2.063885743530   121.59994025   179.33233362
 H     14  13  12     2.064025603588   117.72084659   359.90863199
 H     15  14  13     2.064953197254   120.14338710   180.01740386
 H     16  15  14     2.065168124122   119.13720247   180.02735173
 H     17  16  15     2.063974172521   121.97822802   179.99405655
 H     21   8   7     2.061741622166   121.51312396   358.25624294
 H     22   7   6     2.061557188834   121.06944218   178.34470933
 H     24   2   1     1.917164018302   126.06431783   358.39670234

------------------------------------------------------------------------------
                   ___                                                        
                  /   \      - P O W E R E D   B Y -                         
                 /     \                                                     
                 |  |  |   _    _      __       _____    __    __             
                 |  |  |  | |  | |    /  \     |  _  \  |  |  /  |          
                  \  \/   | |  | |   /    \    | | | |  |  | /  /          
                 / \  \   | |__| |  /  /\  \   | |_| |  |  |/  /          
                |  |  |   |  __  | /  /__\  \  |    /   |      \           
                |  |  |   | |  | | |   __   |  |    \   |  |\   \          
                \     /   | |  | | |  |  |  |  | |\  \  |  | \   \       
                 \___/    |_|  |_| |__|  |__|  |_| \__\ |__|  \__/        
                                                                              
                      - O R C A' S   B I G   F R I E N D -                    
                                      &                                       
                       - I N T E G R A L  F E E D E R -                       
                                                                              
 v1 FN, 2020, v2 2021, v3 2022-2024                                           
------------------------------------------------------------------------------


----------------------
SHARK INTEGRAL PACKAGE
----------------------

Number of atoms                             ...     37
Number of basis functions                   ...    401
Number of shells                            ...    183
Maximum angular momentum                    ...      2
Integral batch strategy                     ... SHARK/LIBINT Hybrid
RI-J (if used) integral strategy            ... SPLIT-RIJ (Revised 2003 algorithm where possible)
Printlevel                                  ...      1
Contraction scheme used                     ... SEGMENTED contraction
Prescreening option                         ... SCHWARTZ
   Thresh                                   ... 2.500e-11
   Tcut                                     ... 2.500e-12
   Tpresel                                  ... 2.500e-12 
Coulomb Range Separation                    ... NOT USED
Exchange Range Separation                   ... NOT USED
Multipole approximations                    ... NOT USED
Finite Nucleus Model                        ... NOT USED
CABS basis                                  ... NOT available
Auxiliary Coulomb fitting basis             ... AVAILABLE
   # of basis functions in Aux-J            ...   1319
   # of shells in Aux-J                     ...    425
   Maximum angular momentum in Aux-J        ...      4
Auxiliary J/K fitting basis                 ... NOT available
Auxiliary Correlation fitting basis         ... NOT available
Auxiliary 'external' fitting basis          ... NOT available

Checking pre-screening integrals            ... done (  0.0 sec) Dimension = 183
   => SHARK Basis and OBASIS are compatible. Storing Pre-screening
Shell pair information
Shell pair cut-off parameter TPreSel        ...   2.5e-12
Total number of shell pairs                 ...     16836
Shell pairs after pre-screening             ...     10510
Total number of primitive shell pairs       ...     62832
Primitive shell pairs kept                  ...     25462
          la=0 lb=0:   3068 shell pairs
          la=1 lb=0:   3839 shell pairs
          la=1 lb=1:   1261 shell pairs
          la=2 lb=0:   1323 shell pairs
          la=2 lb=1:    862 shell pairs
          la=2 lb=2:    157 shell pairs

Checking whether 4 symmetric matrices of dimension 401 fit in memory
:Max Core in MB      =   2000.00
 MB in use           =     15.17
 MB left             =   1984.83
 MB needed           =      2.46
 Data fit in memory  = YES
Calculating RI/J V-Matrix + Cholesky decomp.... done (  0.1 sec)
Calculating Nuclear repulsion               ... done (  0.0 sec) ENN=   1739.355895127216 Eh

Diagonalization of the overlap matrix:
Smallest eigenvalue                        ... 2.161e-04
Time for diagonalization                   ...    0.016 sec
Threshold for overlap eigenvalues          ... 1.000e-07
Number of eigenvalues below threshold      ... 0
Time for construction of square roots      ...    0.010 sec
Total time needed                          ...    0.028 sec

-------------------
DFT GRID GENERATION
-------------------

General Integration Accuracy     IntAcc      ... 4.388
Radial Grid Type                 RadialGrid  ... OptM3 with GC (2021)
Angular Grid (max. ang.)         AngularGrid ... 4 (Lebedev-302)
Angular grid pruning method      GridPruning ... 4 (adaptive)
Weight generation scheme         WeightScheme... mBecke (2022)
Basis function cutoff            BFCut       ... 1.0000e-11
Integration weight cutoff        WCut        ... 1.0000e-14
Partially contracted basis set               ... off
Rotationally invariant grid construction     ... off
Angular grids for H and He will be reduced by one unit

Total number of grid points                  ...   185213
Total number of batches                      ...     2911
Average number of points per batch           ...       63
Average number of grid points per atom       ...     5006

--------------------
COSX GRID GENERATION
--------------------

GRIDX 1
-------
General Integration Accuracy     IntAcc      ... 3.816
Radial Grid Type                 RadialGrid  ... OptM3 with GC (2021)
Angular Grid (max. ang.)         AngularGrid ... 1 (Lebedev-50)
Angular grid pruning method      GridPruning ... 4 (adaptive)
Weight generation scheme         WeightScheme... mBecke (2022)
Basis function cutoff            BFCut       ... 1.0000e-11
Integration weight cutoff        WCut        ... 1.0000e-14
Partially contracted basis set               ... on
Rotationally invariant grid construction     ... off
Angular grids for H and He will be reduced by one unit

Total number of grid points                  ...    23521
Total number of batches                      ...      201
Average number of points per batch           ...      117
Average number of grid points per atom       ...      636
UseSFitting                                  ... on

GRIDX 2
-------
General Integration Accuracy     IntAcc      ... 4.020
Radial Grid Type                 RadialGrid  ... OptM3 with GC (2021)
Angular Grid (max. ang.)         AngularGrid ... 2 (Lebedev-110)
Angular grid pruning method      GridPruning ... 4 (adaptive)
Weight generation scheme         WeightScheme... mBecke (2022)
Basis function cutoff            BFCut       ... 1.0000e-11
Integration weight cutoff        WCut        ... 1.0000e-14
Partially contracted basis set               ... on
Rotationally invariant grid construction     ... off
Angular grids for H and He will be reduced by one unit

Total number of grid points                  ...    52153
Total number of batches                      ...      426
Average number of points per batch           ...      122
Average number of grid points per atom       ...     1410
UseSFitting                                  ... on

GRIDX 3
-------
General Integration Accuracy     IntAcc      ... 4.338
Radial Grid Type                 RadialGrid  ... OptM3 with GC (2021)
Angular Grid (max. ang.)         AngularGrid ... 3 (Lebedev-194)
Angular grid pruning method      GridPruning ... 4 (adaptive)
Weight generation scheme         WeightScheme... mBecke (2022)
Basis function cutoff            BFCut       ... 1.0000e-11
Integration weight cutoff        WCut        ... 1.0000e-14
Partially contracted basis set               ... on
Rotationally invariant grid construction     ... off
Angular grids for H and He will be reduced by one unit

Total number of grid points                  ...   114461
Total number of batches                      ...      915
Average number of points per batch           ...      125
Average number of grid points per atom       ...     3094
UseSFitting                                  ... on
Grids setup in   4.5 sec
Initializing property integral containers    ... done (  0.0 sec)

SHARK setup successfully completed in   4.9 seconds

Maximum memory used throughout the entire STARTUP-calculation: 77.0 MB
Occupation numbers will be reassigned to an Aufbau configuration
             **** ENERGY FILE WAS UPDATED (C:\Users\jabreumiranda\Radioprotection_Pipeline_Project\06_Quantum_DFT_ORCA\CHEMBL1683055_neutral_opt.en.tmp) ****
Finished Guess after   0.2 sec
Maximum memory used throughout the entire GUESS-calculation: 28.5 MB
--------------------
CPCM SOLVATION MODEL
--------------------
CPCM parameters:
  Epsilon                                         ...      80.1510
  Refrac                                          ...       1.3328
  Rsolv                                           ...       1.3000
  Surface type                                    ... GAUSSIAN VDW
  Discretization scheme                           ... Constant charge density
    Threshold for H atoms                         ...       5.0000 (charges/Ang^2)
    Threshold for non-H atoms                     ...       5.0000 (charges/Ang^2)
  Epsilon function type                           ...         CPCM
Solvent:                                          ... WATER
Radii:
  Scheme                                          ... Element-dependent radii
  Radius for N  used is    3.5149 Bohr (=   1.8600 Ang.)
  Radius for C  used is    3.8550 Bohr (=   2.0400 Ang.)
  Radius for H  used is    2.4944 Bohr (=   1.3200 Ang.)
Calculating surface                               ...        done! (  0.0s)
Cavity surface points                             ...         3365
Cavity Volume                                     ...    2402.5477
Cavity Surface-area                               ...    1210.0041
Calculating surface distance matrix               ...        done! (  0.1s)
Performing Cholesky decomposition & store         ...        done! (  0.5s)
Overall time for CPCM initialization              ...                 0.7s

----------------------------------------D-I-I-S--------------------------------------------
Iteration    Energy (Eh)           Delta-E    RMSDP     MaxDP     DIISErr   Damp  Time(sec)
-------------------------------------------------------------------------------------------
               ***  Starting incremental Fock matrix formation  ***
                              *** Initializing SOSCF ***
---------------------------------------S-O-S-C-F--------------------------------------
Iteration    Energy (Eh)           Delta-E    RMSDP     MaxDP     MaxGrad    Time(sec)
--------------------------------------------------------------------------------------
    1    -1004.3551076884116355     0.00e+00  7.67e-05  3.18e-03  2.44e-04    24.8
               *** Restarting incremental Fock matrix formation ***
    2    -1004.3552285223879608    -1.21e-04  3.32e-05  9.77e-04  3.10e-04    24.9
    3    -1004.3552436511497490    -1.51e-05  1.14e-05  6.04e-04  6.77e-05    16.4
    4    -1004.3552432547578519     3.96e-07  6.31e-06  3.60e-04  1.29e-04    15.7
    5    -1004.3552442249958858    -9.70e-07  1.90e-06  7.37e-05  1.74e-05    13.2
    6    -1004.3552442020429680     2.30e-08  1.15e-06  6.28e-05  3.00e-05    11.5
    7    -1004.3552442402954057    -3.83e-08  4.21e-07  1.76e-05  3.21e-06    10.4
    8    -1004.3552442374850671     2.81e-09  2.25e-07  1.05e-05  3.26e-06     8.9
                 **** Energy Check signals convergence ****

               *****************************************************
               *                     SUCCESS                       *
               *           SCF CONVERGED AFTER   8 CYCLES          *
               *****************************************************

Recomputing exchange energy using gridx3       ... done (   38.236 sec)
Old exchange energy                            :    -27.199823957 Eh
New exchange energy                            :    -27.199861120 Eh
Exchange energy change after final integration :     -0.000037162 Eh
Total energy after final integration           :  -1004.355281399 Eh
             **** ENERGY FILE WAS UPDATED (C:\Users\jabreumiranda\Radioprotection_Pipeline_Project\06_Quantum_DFT_ORCA\CHEMBL1683055_neutral_opt.en.tmp) ****

----------------
TOTAL SCF ENERGY
----------------

Total Energy       :      -1004.35528139908945 Eh          -27329.89663 eV

Components:
Nuclear Repulsion  :       1739.35589512721594 Eh           47330.28013 eV
Electronic Energy  :      -2743.67570177102789 Eh          -74659.21145 eV
One Electron Energy:      -4815.82193287805057 Eh         -131045.17700 eV
Two Electron Energy:       2072.14623110702269 Eh           56385.96556 eV
CPCM Dielectric    :         -0.03543759300099 Eh              -0.96431 eV

Virial components:
Potential Energy   :      -1998.54436455735890 Eh          -54383.15695 eV
Kinetic Energy     :        994.18908315826945 Eh           27053.26031 eV
Virial Ratio       :          2.01022561845934

DFT components:
N(Alpha)           :       80.999988667239 electrons
N(Beta)            :       80.999988667239 electrons
N(Total)           :      161.999977334477 electrons
E(X)               :     -108.113776519092 Eh       
E(C)               :       -6.529864337114 Eh       
E(XC)              :     -114.643640856207 Eh       

CPCM Solvation Model Properties:
Surface-charge          :         -0.02718373388599
Corrected charge        :         -0.00000000000000
Outlying charge corr.   :          0.00003724561001 Eh               0.00101 eV
Free-energy (cav+disp)  :  This term is not implemented in the current solvation scheme

---------------
SCF CONVERGENCE
---------------

  Last Energy change         ...   -2.8103e-09  Tolerance :   1.0000e-08
  Last MAX-Density change    ...    1.0541e-05  Tolerance :   1.0000e-07
  Last RMS-Density change    ...    2.2461e-07  Tolerance :   5.0000e-09
  Last DIIS Error            ...    2.3331e-03  Tolerance :   5.0000e-07
  Last Orbital Gradient      ...    3.2594e-06  Tolerance :   1.0000e-05
  Last Orbital Rotation      ...    6.3632e-06  Tolerance :   1.0000e-05


Total SCF time: 0 days 0 hours 2 min 53 sec 
Finished LeanSCF after 173.5 sec

Maximum memory used throughout the entire LEANSCF-calculation: 110.1 MB

------------------------------------------------------------------------------
                         ORCA PROPERTY INTEGRAL CALCULATIONS
------------------------------------------------------------------------------

GBWName                                   ... C:\Users\jabreumiranda\Radioprotection_Pipeline_Project\06_Quantum_DFT_ORCA\CHEMBL1683055_neutral_opt.gbw
Number of atoms                           ...     37
Number of basis functions                 ...    401
Max core memory                           ...   2000 MB

Dipole integrals                          ... YES
Quadrupole integrals                      ...  NO
Linear momentum integrals                 ...  NO
Angular momentum integrals                ...  NO
Higher moments length integrals           ...  NO
Higher moments velocity integrals         ...  NO
Kinetic energy integrals                  ...  NO
GIAO right hand sides                     ...  NO
GIAO dipole derivative integrals          ...  NO
SOC integrals                             ...  NO
EPR diamagnetic integrals (GIAO)          ...  NO
EPR gauge integrals                       ...  NO
Field gradient integrals                  ...  NO (   0 nuclei)
Spin-dipole/Fermi contact integrals       ...  NO (   0 nuclei)
Contact density integrals                 ...  NO (   0 nuclei)
Nucleus-orbit integrals                   ...  NO (   0 nuclei)
Geometric perturbations                   ...  NO (  37 nuclei)

Choice of electric origin   ... Center of mass
Position of electric origin ... (  0.0610,  0.0362,  0.0531) 
Choice of magnetic origin   ... GIAO
Position of magnetic origin ... (  0.0000,  0.0000,  0.0000) 

Calculating integrals                     ... Electric Dipole (Length)     done (  0.0 sec)

Property integrals calculated in   0.0 sec

Maximum memory used throughout the entire PROPINT-calculation: 26.9 MB


-------------------------------------------------------------------------------
                          DFT DISPERSION CORRECTION                            
                                                                               
                              DFTD3 V3.1  Rev 1                                
                          USING Becke-Johnson damping                          
-------------------------------------------------------------------------------
-------------------------   ----------------
Dispersion correction           -0.088086001
-------------------------   ----------------


-------------------------   --------------------
FINAL SINGLE POINT ENERGY     -1004.443367399737
-------------------------   --------------------

------------------------------------------------------------------------------
                         ORCA SCF GRADIENT CALCULATION
------------------------------------------------------------------------------

Nuc. rep. gradient        (SHARK) ... done (  0.0 sec)
HCore & Overlap gradient  (SHARK) ... done (  1.0 sec)
Split-RIJ-J gradient      (SHARK) ... done (  6.7 sec)
COSX-gradient                     ... done (102.2 sec)
XC gradient                       ... done ( 16.1 sec)
CPCM gradient                     ... done (  5.6 sec)
Dispersion correction             ... done (  0.1 sec)

-------------------
DISPERSION GRADIENT
-------------------

   1   N   :    0.000460286   -0.000208995   -0.000123452
   2   C   :   -0.002626194    0.001892501    0.000912729
   3   N   :    0.000015070   -0.000111950   -0.000021639
   4   C   :    0.001186081   -0.002300837   -0.000776646
   5   C   :    0.000208127    0.000309156    0.000024516
   6   C   :    0.000556806    0.000173189   -0.000084113
   7   C   :    0.000417431   -0.000118917   -0.000107779
   8   C   :   -0.000179745    0.000036495    0.000060642
   9   C   :   -0.000254487    0.000214375    0.000278616
  10   C   :   -0.000075209    0.000347995    0.000359270
  11   C   :   -0.000415171   -0.000157907   -0.000090562
  12   N   :   -0.000135654    0.000234843    0.000237235
  13   C   :    0.000377264    0.000105320    0.000047985
  14   C   :   -0.000425680    0.000151426    0.000197104
  15   C   :   -0.000364878   -0.000006829    0.000041520
  16   C   :   -0.000262702   -0.000206026   -0.000157570
  17   C   :   -0.000161500   -0.000348423   -0.000303322
  18   C   :    0.000333766    0.000143860    0.000091204
  19   N   :    0.000101277   -0.000222316   -0.000224530
  20   C   :   -0.000596126   -0.000078097   -0.000017979
  21   C   :   -0.000122231   -0.000116282   -0.000135423
  22   C   :    0.000132902   -0.000135638   -0.000019948
  23   C   :    0.001850741    0.000173293   -0.000243556
  24   N   :    0.000170511    0.000394964    0.000081866
  25   H   :    0.000206175   -0.000051737   -0.000058305
  26   H   :    0.000169605   -0.000146477   -0.000087097
  27   H   :    0.000128268    0.000293403    0.000049790
  28   H   :    0.000108432    0.000335586    0.000042283
  29   H   :   -0.000018425    0.000243335    0.000263743
  30   H   :   -0.000027942    0.000236862    0.000227613
  31   H   :   -0.000206927    0.000163960    0.000180023
  32   H   :   -0.000278243    0.000012569    0.000048168
  33   H   :   -0.000181824   -0.000169673   -0.000134392
  34   H   :    0.000001407   -0.000233849   -0.000218160
  35   H   :   -0.000039729   -0.000206818   -0.000225244
  36   H   :   -0.000031170   -0.000312595   -0.000042307
  37   H   :   -0.000020312   -0.000329768   -0.000072281

Difference to translation invariance:
           :   -0.0000000000   -0.0000000000   -0.0000000000

Difference to rotation invariance:
           :   -0.0000000000    0.0000000000   -0.0000000000

Norm of the Dispersion gradient    ...    0.0051926510
RMS gradient                       ...    0.0004928646
MAX gradient                       ...    0.0026261939

------------------
CARTESIAN GRADIENT
------------------

   1   N   :    0.000456822   -0.000604525    0.000577521
   2   C   :   -0.000308756    0.000384949   -0.000135940
   3   N   :   -0.000097467   -0.000215403   -0.000143890
   4   C   :   -0.000173802   -0.000056407    0.000038710
   5   C   :    0.000021674   -0.000178552   -0.000047393
   6   C   :    0.000356624    0.000250386    0.000095103
   7   C   :   -0.000216233    0.000181105    0.000141904
   8   C   :    0.000181966   -0.000159610   -0.000136968
   9   C   :   -0.000254031    0.000289933    0.000221941
  10   C   :    0.000095874   -0.000052070   -0.000058262
  11   C   :    0.000126818   -0.000140786   -0.000141990
  12   N   :    0.000120252   -0.000184350   -0.000185527
  13   C   :    0.000052235   -0.000137453   -0.000134451
  14   C   :   -0.000030575   -0.000061621   -0.000047070
  15   C   :   -0.000007463   -0.000037100   -0.000039883
  16   C   :   -0.000040181    0.000029371    0.000027470
  17   C   :   -0.000071423    0.000021975    0.000017388
  18   C   :   -0.000071426    0.000132340    0.000132159
  19   N   :   -0.000132117    0.000196969    0.000209962
  20   C   :    0.000064255    0.000204449    0.000142012
  21   C   :   -0.000350779   -0.000139273    0.000077461
  22   C   :    0.000225683   -0.000164628   -0.000223289
  23   C   :    0.000137261    0.000004309    0.000037092
  24   N   :    0.000156838    0.000254047    0.000032366
  25   H   :   -0.000083212    0.000184583   -0.000068756
  26   H   :   -0.000181698    0.000186933   -0.000334534
  27   H   :    0.000039645   -0.000053455    0.000002448
  28   H   :   -0.000154525   -0.000146178   -0.000035009
  29   H   :    0.000159123   -0.000166529   -0.000135062
  30   H   :   -0.000178682   -0.000066623   -0.000046065
  31   H   :    0.000124059    0.000027011    0.000017480
  32   H   :    0.000008678   -0.000063337   -0.000063322
  33   H   :   -0.000048803    0.000051639    0.000041117
  34   H   :    0.000117239    0.000058028    0.000023522
  35   H   :    0.000029770    0.000050831    0.000010751
  36   H   :   -0.000077909    0.000106609    0.000069737
  37   H   :    0.000004263    0.000012434    0.000061268

Difference to translation invariance:
           :    0.0000000001    0.0000000000    0.0000000000

Difference to rotation invariance:
           :    0.0005841186   -0.0004845739    0.0001923738

Norm of the Cartesian gradient     ...    0.0017778812
RMS gradient                       ...    0.0001687490
MAX gradient                       ...    0.0006045254

-------
TIMINGS
-------

Total SCF gradient time     ....      131.688 sec

Densities                   ....       0.005 sec  (  0.0%)
One electron gradient       ....       1.028 sec  (  0.8%)
RI-J Coulomb gradient       ....       6.715 sec  (  5.1%)
COSX gradient               ....     102.176 sec  ( 77.6%)
XC gradient                 ....      16.079 sec  ( 12.2%)
CPCM gradient               ....       5.597 sec  (  4.3%)
   A-Matrix (El+Nuc)        ....       0.583 sec  (  0.4%)
   Potential                ....       5.014 sec  (  3.8%)

Maximum memory used throughout the entire SCFGRAD-calculation: 59.4 MB
------------------------------------------------------------------------------
                         ORCA GEOMETRY RELAXATION STEP
------------------------------------------------------------------------------

Reading the OPT-File                    .... done
Getting information on internals        .... done
Copying old internal coords+grads       .... done
Making the new internal coordinates     .... (2022 redundants) done
Validating the new internal coordinates .... (2022 redundants) done
Calculating the B-matrix                .... done
Calculating the G,G- and P matrices     .... done
Transforming gradient to internals      .... done
Projecting the internal gradient        .... done
Number of atoms                         ....  37
Number of internal coordinates          .... 207
Current Energy                          .... -1004.443367400 Eh
Current gradient norm                   ....     0.001777881 Eh/bohr
Maximum allowed component of the step   ....  0.300
Current trust radius                    ....  0.700
Updating the Hessian (BFGS)             .... done
Forming the augmented Hessian           .... done
Diagonalizing the augmented Hessian     .... done
Last element of RFO vector              ....  0.999589517
Lowest eigenvalues of augmented Hessian:
 -0.000019210  0.007565025  0.017786577  0.020784065  0.021806626
Length of the computed step             ....  0.028661321
The final length of the internal step   ....  0.028661321
Converting the step to Cartesian space:
 Initial RMS(Int)=    0.0019920995
Transforming coordinates:
 Iter   0:  RMS(Cart)=    0.0034597388 RMS(Int)=    0.0019949001
done
Storing new coordinates                 .... done
The predicted energy change is          ....    -0.000009613
Previously predicted energy change      ....    -0.000014981
Actually observed energy change         ....    -0.000020040
Ratio of predicted to observed change   ....     1.337688664
New trust radius                        ....     0.700000000

                                .--------------------.
          ----------------------|Geometry convergence|-------------------------
          Item                value                   Tolerance       Converged
          ---------------------------------------------------------------------
          Energy change      -0.0000200401            0.0000050000      NO
          RMS gradient        0.0000984312            0.0001000000      YES
          MAX gradient        0.0004373157            0.0003000000      NO
          RMS step            0.0019920995            0.0020000000      YES
          MAX step            0.0188841440            0.0040000000      NO
          -------------------------------------------------------------------------
          ........................................................
          Max(Bonds)      0.0007      Max(Angles)    0.22
          Max(Dihed)        1.08      Max(Improp)    0.00
          ---------------------------------------------------------------------

The optimization has not yet converged - more geometry cycles are needed


    ---------------------------------------------------------------------------
                         Redundant Internal Coordinates
                            (Angstroem and degrees)

        Definition                    Value    dE/dq     Step     New-Value
    ----------------------------------------------------------------------------
     1. B(C   1,N   0)                1.3588  0.000244 -0.0007    1.3581   
     2. B(N   2,C   1)                1.3261 -0.000264  0.0004    1.3265   
     3. B(C   3,N   2)                1.3825 -0.000036 -0.0002    1.3823   
     4. B(C   4,C   3)                1.4014 -0.000154  0.0003    1.4017   
     5. B(C   5,C   4)                1.3962 -0.000007 -0.0000    1.3962   
     6. B(C   6,C   5)                1.4180  0.000118 -0.0002    1.4178   
     7. B(C   7,C   6)                1.4810  0.000087 -0.0005    1.4805   
     8. B(C   8,C   7)                1.4433  0.000128 -0.0003    1.4430   
     9. B(C   9,C   8)                1.3688  0.000012  0.0001    1.3689   
    10. B(C  10,C   9)                1.4308 -0.000115 -0.0002    1.4306   
    11. B(N  11,C  10)                1.3368 -0.000098  0.0002    1.3369   
    12. B(C  12,N  11)                1.3424 -0.000098  0.0003    1.3427   
    13. B(C  13,C  12)                1.4296 -0.000062 -0.0003    1.4293   
    14. B(C  14,C  13)                1.3736  0.000043  0.0001    1.3737   
    15. B(C  15,C  14)                1.4293 -0.000123 -0.0001    1.4292   
    16. B(C  16,C  15)                1.3734  0.000046  0.0001    1.3735   
    17. B(C  17,C  16)                1.4307 -0.000064 -0.0003    1.4305   
    18. B(C  17,C  12)                1.4487 -0.000437  0.0004    1.4490   
    19. B(N  18,C  17)                1.3407 -0.000097  0.0003    1.3409   
    20. B(C  19,N  18)                1.3416 -0.000079  0.0003    1.3419   
    21. B(C  19,C  10)                1.4488 -0.000431  0.0004    1.4492   
    22. B(C  20,C  19)                1.4252 -0.000156 -0.0002    1.4250   
    23. B(C  20,C   7)                1.3841  0.000123  0.0001    1.3842   
    24. B(C  21,C   6)                1.4131  0.000137 -0.0000    1.4131   
    25. B(C  22,C  21)                1.3877 -0.000024 -0.0001    1.3876   
    26. B(C  22,C   3)                1.4254 -0.000214  0.0001    1.4255   
    27. B(N  23,C  22)                1.3864 -0.000134  0.0002    1.3866   
    28. B(N  23,C   1)                1.3761 -0.000200  0.0003    1.3764   
    29. B(H  24,N   0)                1.0152  0.000045 -0.0001    1.0151   
    30. B(H  25,N   0)                1.0155  0.000049 -0.0002    1.0153   
    31. B(H  26,C   4)                1.0925 -0.000022  0.0000    1.0925   
    32. B(H  27,C   5)                1.0914 -0.000070  0.0002    1.0916   
    33. B(H  28,C   8)                1.0911 -0.000064  0.0001    1.0912   
    34. B(H  29,C   9)                1.0922 -0.000010  0.0000    1.0922   
    35. B(H  30,C  13)                1.0922 -0.000009  0.0000    1.0922   
    36. B(H  31,C  14)                1.0927 -0.000022  0.0000    1.0928   
    37. B(H  32,C  15)                1.0928 -0.000020  0.0000    1.0929   
    38. B(H  33,C  16)                1.0922 -0.000012  0.0000    1.0922   
    39. B(H  34,C  20)                1.0910 -0.000032  0.0001    1.0911   
    40. B(H  35,C  21)                1.0909 -0.000053  0.0001    1.0910   
    41. B(H  36,N  23)                1.0145 -0.000023  0.0000    1.0145   
    42. A(C   1,N   0,H  24)          115.34 -0.000236    0.21    115.55   
    43. A(H  24,N   0,H  25)          114.77  0.000157    0.14    114.91   
    44. A(C   1,N   0,H  25)          117.71 -0.000298    0.22    117.93   
    45. A(N   2,C   1,N  23)          112.92 -0.000034   -0.00    112.92   
    46. A(N   0,C   1,N  23)          121.74 -0.000041    0.02    121.76   
    47. A(N   0,C   1,N   2)          125.28  0.000074   -0.01    125.26   
    48. A(C   1,N   2,C   3)          105.10  0.000026   -0.00    105.10   
    49. A(N   2,C   3,C  22)          110.31 -0.000014    0.02    110.32   
    50. A(C   4,C   3,C  22)          118.81  0.000079   -0.04    118.77   
    51. A(N   2,C   3,C   4)          130.88 -0.000065    0.02    130.90   
    52. A(C   3,C   4,C   5)          118.63  0.000042   -0.00    118.63   
    53. A(C   5,C   4,H  26)          120.87  0.000042   -0.03    120.84   
    54. A(C   3,C   4,H  26)          120.50 -0.000083    0.03    120.53   
    55. A(C   4,C   5,C   6)          122.38 -0.000042    0.04    122.42   
    56. A(C   4,C   5,H  27)          118.50  0.000228   -0.13    118.37   
    57. A(C   6,C   5,H  27)          119.09 -0.000187    0.09    119.19   
    58. A(C   5,C   6,C   7)          120.64  0.000138    0.01    120.66   
    59. A(C   5,C   6,C  21)          119.20 -0.000100   -0.04    119.16   
    60. A(C   7,C   6,C  21)          120.16 -0.000038    0.02    120.18   
    61. A(C   8,C   7,C  20)          118.15 -0.000098   -0.05    118.11   
    62. A(C   6,C   7,C  20)          121.73  0.000173   -0.02    121.72   
    63. A(C   6,C   7,C   8)          120.11 -0.000075    0.06    120.18   
    64. A(C   7,C   8,H  28)          118.76 -0.000234    0.09    118.85   
    65. A(C   9,C   8,H  28)          119.22  0.000299   -0.12    119.10   
    66. A(C   7,C   8,C   9)          122.00 -0.000065    0.03    122.03   
    67. A(C  10,C   9,H  29)          117.78 -0.000197    0.03    117.80   
    68. A(C   8,C   9,H  29)          121.60  0.000204   -0.04    121.56   
    69. A(C   8,C   9,C  10)          120.62 -0.000008    0.02    120.64   
    70. A(N  11,C  10,C  19)          121.43 -0.000070    0.03    121.47   
    71. A(C   9,C  10,C  19)          118.24  0.000100   -0.04    118.20   
    72. A(C   9,C  10,N  11)          120.33 -0.000030    0.00    120.33   
    73. A(C  10,N  11,C  12)          117.75  0.000178   -0.06    117.69   
    74. A(N  11,C  12,C  13)          119.98  0.000052   -0.03    119.96   
    75. A(C  13,C  12,C  17)          119.05  0.000045    0.00    119.05   
    76. A(N  11,C  12,C  17)          120.97 -0.000097    0.03    120.99   
    77. A(C  14,C  13,H  30)          121.97  0.000129   -0.01    121.97   
    78. A(C  12,C  13,C  14)          120.30  0.000008    0.00    120.31   
    79. A(C  12,C  13,H  30)          117.72 -0.000137    0.01    117.73   
    80. A(C  13,C  14,C  15)          120.68 -0.000052    0.00    120.68   
    81. A(C  13,C  14,H  31)          120.14  0.000113    0.00    120.15   
    82. A(C  15,C  14,H  31)          119.17 -0.000061   -0.00    119.17   
    83. A(C  16,C  15,H  32)          120.08  0.000108    0.00    120.08   
    84. A(C  14,C  15,H  32)          119.14 -0.000060   -0.00    119.13   
    85. A(C  14,C  15,C  16)          120.79 -0.000048    0.00    120.79   
    86. A(C  15,C  16,H  33)          121.98  0.000131   -0.01    121.97   
    87. A(C  17,C  16,H  33)          117.70 -0.000140    0.01    117.70   
    88. A(C  15,C  16,C  17)          120.33  0.000009    0.00    120.33   
    89. A(C  16,C  17,N  18)          119.96  0.000043   -0.03    119.94   
    90. A(C  12,C  17,N  18)          121.19 -0.000082    0.03    121.22   
    91. A(C  12,C  17,C  16)          118.85  0.000038   -0.00    118.84   
    92. A(C  17,N  18,C  19)          117.82  0.000187   -0.06    117.76   
    93. A(N  18,C  19,C  20)          119.90  0.000053   -0.03    119.87   
    94. A(C  10,C  19,C  20)          119.26  0.000063    0.00    119.26   
    95. A(C  10,C  19,N  18)          120.84 -0.000116    0.03    120.87   
    96. A(C  19,C  20,H  34)          116.74  0.000041   -0.10    116.64   
    97. A(C   7,C  20,H  34)          121.51 -0.000050    0.07    121.58   
    98. A(C   7,C  20,C  19)          121.73  0.000009    0.04    121.76   
    99. A(C   6,C  21,H  35)          121.07 -0.000156    0.07    121.14   
   100. A(C   6,C  21,C  22)          118.06  0.000030    0.02    118.08   
   101. A(C  22,C  21,H  35)          120.85  0.000126   -0.09    120.77   
   102. A(C  21,C  22,N  23)          132.59  0.000063   -0.02    132.57   
   103. A(C   3,C  22,N  23)          104.49 -0.000055    0.00    104.49   
   104. A(C   3,C  22,C  21)          122.92 -0.000008    0.02    122.94   
   105. A(C   1,N  23,C  22)          107.19  0.000077   -0.01    107.17   
   106. A(C  22,N  23,H  36)          126.74 -0.000050    0.01    126.75   
   107. A(C   1,N  23,H  36)          126.06 -0.000027    0.01    126.07   
   108. D(N   2,C   1,N   0,H  24)    -17.44 -0.000128   -0.16    -17.61   
   109. D(N  23,C   1,N   0,H  25)     25.09  0.000353   -1.08     24.01   
   110. D(N  23,C   1,N   0,H  24)    165.66 -0.000111   -0.27    165.39   
   111. D(N   2,C   1,N   0,H  25)   -158.01  0.000336   -0.98   -158.99   
   112. D(C   3,N   2,C   1,N   0)   -176.98  0.000018   -0.12   -177.10   
   113. D(C   3,N   2,C   1,N  23)      0.16  0.000002   -0.02      0.14   
   114. D(C   4,C   3,N   2,C   1)    179.54  0.000000    0.01    179.55   
   115. D(C  22,C   3,N   2,C   1)     -0.28 -0.000002    0.03     -0.25   
   116. D(H  26,C   4,C   3,N   2)      0.64 -0.000003    0.01      0.66   
   117. D(H  26,C   4,C   3,C  22)   -179.55 -0.000001   -0.00   -179.55   
   118. D(C   5,C   4,C   3,C  22)      0.24 -0.000002    0.01      0.25   
   119. D(C   5,C   4,C   3,N   2)   -179.57 -0.000004    0.03   -179.54   
   120. D(H  27,C   5,C   4,C   3)   -178.70  0.000019   -0.05   -178.75   
   121. D(C   6,C   5,C   4,C   3)     -0.45  0.000004   -0.01     -0.47   
   122. D(C   6,C   5,C   4,H  26)    179.33  0.000003    0.00    179.34   
   123. D(H  27,C   5,C   4,H  26)      1.09  0.000018   -0.04      1.05   
   124. D(C  21,C   6,C   5,H  27)    178.57 -0.000014    0.06    178.62   
   125. D(C  21,C   6,C   5,C   4)      0.33 -0.000006    0.02      0.35   
   126. D(C   7,C   6,C   5,H  27)     -0.76 -0.000008    0.01     -0.75   
   127. D(C   7,C   6,C   5,C   4)   -178.99 -0.000001   -0.02   -179.02   
   128. D(C  20,C   7,C   6,C  21)    -27.63  0.000062   -0.13    -27.76   
   129. D(C   8,C   7,C   6,C  21)    152.12  0.000067   -0.11    152.01   
   130. D(C  20,C   7,C   6,C   5)    151.69  0.000056   -0.09    151.60   
   131. D(C   8,C   7,C   6,C   5)    -28.56  0.000061   -0.07    -28.62   
   132. D(H  28,C   8,C   7,C  20)    178.50 -0.000007   -0.02    178.48   
   133. D(H  28,C   8,C   7,C   6)     -1.26 -0.000013   -0.04     -1.30   
   134. D(C   9,C   8,C   7,C  20)     -0.01 -0.000009   -0.02     -0.03   
   135. D(C   9,C   8,C   7,C   6)   -179.77 -0.000014   -0.04   -179.81   
   136. D(H  29,C   9,C   8,C   7)    179.33  0.000005   -0.01    179.33   
   137. D(C  10,C   9,C   8,H  28)   -178.59  0.000011   -0.01   -178.59   
   138. D(C  10,C   9,C   8,C   7)     -0.08  0.000004   -0.00     -0.08   
   139. D(H  29,C   9,C   8,H  28)      0.83  0.000011   -0.01      0.82   
   140. D(C  19,C  10,C   9,H  29)   -179.26 -0.000004    0.04   -179.22   
   141. D(C  19,C  10,C   9,C   8)      0.17 -0.000001    0.04      0.21   
   142. D(N  11,C  10,C   9,H  29)      0.67 -0.000005    0.04      0.71   
   143. D(N  11,C  10,C   9,C   8)   -179.90 -0.000002    0.04   -179.86   
   144. D(C  12,N  11,C  10,C  19)     -0.28 -0.000002    0.01     -0.27   
   145. D(C  12,N  11,C  10,C   9)    179.79 -0.000000    0.01    179.80   
   146. D(C  17,C  12,N  11,C  10)      0.02 -0.000002    0.02      0.03   
   147. D(C  13,C  12,N  11,C  10)   -179.93 -0.000001    0.01   -179.91   
   148. D(H  30,C  13,C  12,C  17)    179.96 -0.000003    0.01    179.97   
   149. D(H  30,C  13,C  12,N  11)     -0.09 -0.000003    0.01     -0.08   
   150. D(C  14,C  13,C  12,C  17)     -0.07 -0.000004    0.02     -0.05   
   151. D(C  14,C  13,C  12,N  11)    179.87 -0.000004    0.02    179.90   
   152. D(H  31,C  14,C  13,H  30)     -0.02  0.000000    0.00     -0.02   
   153. D(H  31,C  14,C  13,C  12)   -179.98  0.000001   -0.01   -179.99   
   154. D(C  15,C  14,C  13,H  30)    179.98 -0.000000    0.00    179.98   
   155. D(C  15,C  14,C  13,C  12)      0.01  0.000001   -0.00      0.01   
   156. D(H  32,C  15,C  14,H  31)      0.02  0.000001    0.00      0.02   
   157. D(H  32,C  15,C  14,C  13)   -179.97  0.000002   -0.00   -179.98   
   158. D(C  16,C  15,C  14,H  31)   -179.98  0.000001   -0.00   -179.98   
   159. D(C  16,C  15,C  14,C  13)      0.03  0.000001   -0.00      0.02   
   160. D(H  33,C  16,C  15,H  32)     -0.00 -0.000000    0.00     -0.00   
   161. D(H  33,C  16,C  15,C  14)    179.99  0.000000    0.00    180.00   
   162. D(C  17,C  16,C  15,H  32)    179.99 -0.000001   -0.00    179.98   
   163. D(C  17,C  16,C  15,C  14)     -0.01 -0.000001   -0.00     -0.02   
   164. D(C  12,C  17,C  16,H  33)    179.95 -0.000003    0.01    179.96   
   165. D(C  12,C  17,C  16,C  15)     -0.04 -0.000002    0.02     -0.03   
   166. D(N  18,C  17,C  12,C  13)   -179.90  0.000004   -0.02   -179.93   
   167. D(N  18,C  17,C  12,N  11)      0.15  0.000004   -0.03      0.12   
   168. D(C  16,C  17,C  12,C  13)      0.08  0.000005   -0.02      0.06   
   169. D(N  18,C  17,C  16,C  15)    179.94 -0.000001    0.02    179.96   
   170. D(C  16,C  17,C  12,N  11)   -179.86  0.000005   -0.03   -179.89   
   171. D(N  18,C  17,C  16,H  33)     -0.06 -0.000002    0.01     -0.05   
   172. D(C  19,N  18,C  17,C  16)    179.98 -0.000004    0.00    179.98   
   173. D(C  19,N  18,C  17,C  12)     -0.04 -0.000003    0.00     -0.03   
   174. D(C  20,C  19,N  18,C  17)   -179.71 -0.000002    0.04   -179.67   
   175. D(C  10,C  19,N  18,C  17)     -0.23 -0.000000    0.03     -0.20   
   176. D(C  20,C  19,C  10,N  11)    179.89  0.000004   -0.05    179.84   
   177. D(C  20,C  19,C  10,C   9)     -0.18  0.000002   -0.05     -0.23   
   178. D(N  18,C  19,C  10,N  11)      0.40  0.000002   -0.04      0.37   
   179. D(N  18,C  19,C  10,C   9)   -179.67  0.000001   -0.03   -179.70   
   180. D(H  34,C  20,C  19,N  18)      1.03  0.000013   -0.04      0.98   
   181. D(H  34,C  20,C  19,C  10)   -178.47  0.000012   -0.03   -178.50   
   182. D(C   7,C  20,C  19,N  18)    179.59 -0.000006    0.01    179.60   
   183. D(C   7,C  20,C  19,C  10)      0.09 -0.000007    0.03      0.12   
   184. D(H  34,C  20,C   7,C   8)    178.49 -0.000009    0.06    178.56   
   185. D(H  34,C  20,C   7,C   6)     -1.74 -0.000004    0.08     -1.66   
   186. D(C  19,C  20,C   7,C   8)      0.00  0.000010    0.01      0.01   
   187. D(C  19,C  20,C   7,C   6)    179.76  0.000015    0.03    179.79   
   188. D(H  35,C  21,C   6,C   7)     -2.33 -0.000013    0.09     -2.24   
   189. D(H  35,C  21,C   6,C   5)    178.34 -0.000009    0.04    178.39   
   190. D(C  22,C  21,C   6,C   7)    179.33  0.000000    0.01    179.35   
   191. D(C  22,C  21,C   6,C   5)      0.00  0.000004   -0.03     -0.03   
   192. D(N  23,C  22,C  21,H  35)      0.98  0.000018   -0.06      0.92   
   193. D(N  23,C  22,C  21,C   6)    179.33  0.000000    0.01    179.34   
   194. D(C   3,C  22,C  21,H  35)   -178.55  0.000016   -0.04   -178.60   
   195. D(C   3,C  22,C  21,C   6)     -0.21 -0.000002    0.03     -0.18   
   196. D(N  23,C  22,C   3,C   4)   -179.56 -0.000001   -0.01   -179.56   
   197. D(N  23,C  22,C   3,N   2)      0.29  0.000000   -0.02      0.27   
   198. D(C  21,C  22,C   3,C   4)      0.09  0.000001   -0.02      0.07   
   199. D(C  21,C  22,C   3,N   2)    179.93  0.000003   -0.04    179.90   
   200. D(H  36,N  23,C  22,C  21)     -0.91 -0.000029    0.18     -0.73   
   201. D(H  36,N  23,C  22,C   3)    178.68 -0.000027    0.17    178.85   
   202. D(C   1,N  23,C  22,C  21)   -179.78 -0.000002    0.02   -179.76   
   203. D(C   1,N  23,C  22,C   3)     -0.18  0.000001    0.01     -0.18   
   204. D(H  36,N  23,C   1,N   2)   -178.86  0.000025   -0.15   -179.01   
   205. D(H  36,N  23,C   1,N   0)     -1.60  0.000014   -0.06     -1.66   
   206. D(C  22,N  23,C   1,N   2)      0.02 -0.000002    0.01      0.03   
   207. D(C  22,N  23,C   1,N   0)    177.27 -0.000014    0.10    177.38   
    ----------------------------------------------------------------------------

Geometry step timings:
Preparation and reading OPT file:      0.009 s (39.130 %)
Internal coordinates            :      0.000 s ( 0.000 %)
B/P matrices and projection     :      0.005 s (21.739 %)
Hessian update/contruction      :      0.004 s (17.391 %)
Making the step                 :      0.002 s ( 8.696 %)
Converting the step to Cartesian:      0.001 s ( 4.348 %)
Storing new data                :      0.000 s ( 0.000 %)
Checking convergence            :      0.000 s ( 0.000 %)
Final printing                  :      0.002 s ( 8.696 %)
Total time                      :      0.023 s

Time for energy+gradient        :    310.869 s
Time for complete geometry iter :    310.979 s

         *************************************************************
         *                GEOMETRY OPTIMIZATION CYCLE   8            *
         *************************************************************
---------------------------------
CARTESIAN COORDINATES (ANGSTROEM)
---------------------------------
  N      7.081496   -1.699781   -1.205174
  C      5.981861   -0.966519   -0.892644
  N      5.985433    0.320563   -0.571623
  C      4.669788    0.620474   -0.271867
  C      4.072495    1.820250    0.138637
  C      2.698186    1.833519    0.384699
  C      1.886250    0.682192    0.225194
  C      0.428619    0.745788    0.476255
  C     -0.103310    1.694019    1.425000
  C     -1.443501    1.782789    1.689147
  C     -2.376172    0.927081    1.022432
  N     -3.684124    1.020933    1.282937
  C     -4.512359    0.194724    0.623964
  C     -5.920134    0.254855    0.863761
  C     -6.774228   -0.585553    0.192024
  C     -6.272176   -1.531285   -0.754554
  C     -4.926165   -1.620794   -1.012660
  C     -4.002224   -0.764457   -0.334927
  N     -2.689628   -0.859064   -0.592378
  C     -1.862109   -0.034384    0.067762
  C     -0.459404   -0.091727   -0.176404
  C      2.483322   -0.529132   -0.190772
  C      3.850694   -0.535905   -0.426925
  N      4.729252   -1.532758   -0.823236
  H      7.907121   -1.165202   -1.456197
  H      6.947713   -2.554532   -1.736571
  H      4.671876    2.725614    0.259570
  H      2.233906    2.774980    0.684051
  H      0.588162    2.342998    1.964869
  H     -1.836674    2.496052    2.416820
  H     -6.281031    0.985424    1.591096
  H     -7.850087   -0.537224    0.377223
  H     -6.974476   -2.187336   -1.274864
  H     -4.521589   -2.336286   -1.731923
  H     -0.121587   -0.813610   -0.921551
  H      1.893793   -1.440798   -0.298673
  H      4.501011   -2.503011   -1.012401

----------------------------
CARTESIAN COORDINATES (A.U.)
----------------------------
  NO LB      ZA    FRAG     MASS         X           Y           Z
   0 N     7.0000    0    14.007   13.382088   -3.212120   -2.277448
   1 C     6.0000    0    12.011   11.304080   -1.826457   -1.686853
   2 N     7.0000    0    14.007   11.310829    0.605777   -1.080210
   3 C     6.0000    0    12.011    8.824621    1.172527   -0.513754
   4 C     6.0000    0    12.011    7.695900    3.439774    0.261986
   5 C     6.0000    0    12.011    5.098832    3.464849    0.726975
   6 C     6.0000    0    12.011    3.564495    1.289156    0.425555
   7 C     6.0000    0    12.011    0.809973    1.409334    0.899992
   8 C     6.0000    0    12.011   -0.195227    3.201232    2.692860
   9 C     6.0000    0    12.011   -2.727821    3.368982    3.192026
  10 C     6.0000    0    12.011   -4.490314    1.751930    1.932117
  11 N     7.0000    0    14.007   -6.961985    1.929285    2.424400
  12 C     6.0000    0    12.011   -8.527122    0.367976    1.179122
  13 C     6.0000    0    12.011  -11.187432    0.481606    1.632272
  14 C     6.0000    0    12.011  -12.801436   -1.106534    0.362873
  15 C     6.0000    0    12.011  -11.852695   -2.893710   -1.425900
  16 C     6.0000    0    12.011   -9.309102   -3.062857   -1.913650
  17 C     6.0000    0    12.011   -7.563107   -1.444614   -0.632920
  18 N     7.0000    0    14.007   -5.082660   -1.623396   -1.119432
  19 C     6.0000    0    12.011   -3.518876   -0.064977    0.128051
  20 C     6.0000    0    12.011   -0.868148   -0.173338   -0.333356
  21 C     6.0000    0    12.011    4.692798   -0.999914   -0.360507
  22 C     6.0000    0    12.011    7.276756   -1.012713   -0.806771
  23 N     7.0000    0    14.007    8.936991   -2.896493   -1.555691
  24 H     1.0000    0     1.008   14.942294   -2.201913   -2.751814
  25 H     1.0000    0     1.008   13.129274   -4.827365   -3.281644
  26 H     1.0000    0     1.008    8.828567    5.150665    0.490517
  27 H     1.0000    0     1.008    4.221470    5.243952    1.292670
  28 H     1.0000    0     1.008    1.111464    4.427624    3.713065
  29 H     1.0000    0     1.008   -3.470811    4.716854    4.567127
  30 H     1.0000    0     1.008  -11.869429    1.862182    3.006736
  31 H     1.0000    0     1.008  -14.834515   -1.015205    0.712849
  32 H     1.0000    0     1.008  -13.179849   -4.133466   -2.409144
  33 H     1.0000    0     1.008   -8.544565   -4.414940   -3.272860
  34 H     1.0000    0     1.008   -0.229766   -1.537499   -1.741480
  35 H     1.0000    0     1.008    3.578751   -2.722713   -0.564409
  36 H     1.0000    0     1.008    8.505678   -4.730006   -1.913160

--------------------------------
INTERNAL COORDINATES (ANGSTROEM)
--------------------------------
 N      0   0   0     0.000000000000     0.00000000     0.00000000
 C      1   0   0     1.358139622107     0.00000000     0.00000000
 N      2   1   0     1.326517823770   125.26505840     0.00000000
 C      3   2   1     1.382288543193   105.09579842   182.89945633
 C      4   3   2     1.401690062867   130.90454921   179.55343168
 C      5   4   3     1.396226083167   118.63195491   180.46215317
 C      6   5   4     1.417828180427   122.42053097   359.53475914
 C      7   6   5     1.480460146637   120.65521868   180.98406772
 C      8   7   6     1.442985804900   120.17702414   331.37617834
 C      9   8   7     1.368855426592   122.03257507   180.18889634
 C     10   9   8     1.430601336398   120.63524466   359.91523491
 N     11  10   9     1.336940286878   120.33202313   180.14419602
 C     12  11  10     1.342698456778   117.68710759   179.80143651
 C     13  12  11     1.429317798548   119.95508343   180.08610986
 C     14  13  12     1.373678836775   120.30530758   179.89571985
 C     15  14  13     1.429152095105   120.68494605     0.00000000
 C     16  15  14     1.373454499038   120.78848373     0.02393739
 C     17  16  15     1.430490198695   120.32721292     0.00000000
 N     18  17  16     1.340947308897   119.93643866   179.96168992
 C     19  18  17     1.341889840778   117.76422819   179.97978687
 C      8   7   6     1.384189296382   121.71557389   151.60096197
 C      7   6   5     1.413091664378   119.15928212     0.35474737
 C     22   7   6     1.387630994274   118.07588523   359.97313071
 N      2   1   3     1.376398792397   121.75828777   182.99421936
 H      1   2   3     1.015108298893   115.53797461   342.39602548
 H      1   2   3     1.015322549139   117.92206457   201.00944656
 H      5   4   3     1.092504972600   120.52824641     0.65990965
 H      6   5   4     1.091565957217   118.37135013   181.25318795
 H      9   8   7     1.091221865862   118.84936409   358.70126015
 H     10   9   8     1.092170567576   121.55883145   179.32666187
 H     14  13  12     1.092242800575   117.72947873   359.92297924
 H     15  14  13     1.092751883732   120.14637124   180.01209022
 H     16  15  14     1.092863313537   119.13276234   180.02463669
 H     17  16  15     1.092221858463   121.96901516   179.99641152
 H     21   8   7     1.091090873174   121.58048553   358.33640632
 H     22   7   6     1.091018408293   121.13778795   178.38654442
 H     24   2   1     1.014528748929   126.07006629   358.34005387

---------------------------
INTERNAL COORDINATES (A.U.)
---------------------------
 N      0   0   0     0.000000000000     0.00000000     0.00000000
 C      1   0   0     2.566511937409     0.00000000     0.00000000
 N      2   1   0     2.506755398690   125.26505840     0.00000000
 C      3   2   1     2.612146784692   105.09579842   182.89945633
 C      4   3   2     2.648810343457   130.90454921   179.55343168
 C      5   4   3     2.638484918222   118.63195491   180.46215317
 C      6   5   4     2.679306965963   122.42053097   359.53475914
 C      7   6   5     2.797664229329   120.65521868   180.98406772
 C      8   7   6     2.726847986398   120.17702414   331.37617834
 C      9   8   7     2.586761873191   122.03257507   180.18889634
 C     10   9   8     2.703444732615   120.63524466   359.91523491
 N     11  10   9     2.526450999605   120.33202313   180.14419602
 C     12  11  10     2.537332363750   117.68710759   179.80143651
 C     13  12  11     2.701019197595   119.95508343   180.08610986
 C     14  13  12     2.595876797469   120.30530758   179.89571985
 C     15  14  13     2.700706063468   120.68494605     0.00000000
 C     16  15  14     2.595452860584   120.78848373     0.02393739
 C     17  16  15     2.703234712793   120.32721292     0.00000000
 N     18  17  16     2.534023173834   119.93643866   179.96168992
 C     19  18  17     2.535804300962   117.76422819   179.97978687
 C      8   7   6     2.615738687667   121.71557389   151.60096197
 C      7   6   5     2.670356247802   119.15928212     0.35474737
 C     22   7   6     2.622242554119   118.07588523   359.97313071
 N      2   1   3     2.601016768690   121.75828777   182.99421936
 H      1   2   3     1.918276681178   115.53797461   342.39602548
 H      1   2   3     1.918681555467   117.92206457   201.00944656
 H      5   4   3     2.064535198161   120.52824641     0.65990965
 H      6   5   4     2.062760716251   118.37135013   181.25318795
 H      9   8   7     2.062110477826   118.84936409   358.70126015
 H     10   9   8     2.063903264248   121.55883145   179.32666187
 H     14  13  12     2.064039764833   117.72947873   359.92297924
 H     15  14  13     2.065001792580   120.14637124   180.01209022
 H     16  15  14     2.065212364395   119.13276234   180.02463669
 H     17  16  15     2.064000189977   121.96901516   179.99641152
 H     21   8   7     2.061862937520   121.58048553   358.33640632
 H     22   7   6     2.061725998740   121.13778795   178.38654442
 H     24   2   1     1.917181490466   126.07006629   358.34005387

------------------------------------------------------------------------------
                   ___                                                        
                  /   \      - P O W E R E D   B Y -                         
                 /     \                                                     
                 |  |  |   _    _      __       _____    __    __             
                 |  |  |  | |  | |    /  \     |  _  \  |  |  /  |          
                  \  \/   | |  | |   /    \    | | | |  |  | /  /          
                 / \  \   | |__| |  /  /\  \   | |_| |  |  |/  /          
                |  |  |   |  __  | /  /__\  \  |    /   |      \           
                |  |  |   | |  | | |   __   |  |    \   |  |\   \          
                \     /   | |  | | |  |  |  |  | |\  \  |  | \   \       
                 \___/    |_|  |_| |__|  |__|  |_| \__\ |__|  \__/        
                                                                              
                      - O R C A' S   B I G   F R I E N D -                    
                                      &                                       
                       - I N T E G R A L  F E E D E R -                       
                                                                              
 v1 FN, 2020, v2 2021, v3 2022-2024                                           
------------------------------------------------------------------------------


----------------------
SHARK INTEGRAL PACKAGE
----------------------

Number of atoms                             ...     37
Number of basis functions                   ...    401
Number of shells                            ...    183
Maximum angular momentum                    ...      2
Integral batch strategy                     ... SHARK/LIBINT Hybrid
RI-J (if used) integral strategy            ... SPLIT-RIJ (Revised 2003 algorithm where possible)
Printlevel                                  ...      1
Contraction scheme used                     ... SEGMENTED contraction
Prescreening option                         ... SCHWARTZ
   Thresh                                   ... 2.500e-11
   Tcut                                     ... 2.500e-12
   Tpresel                                  ... 2.500e-12 
Coulomb Range Separation                    ... NOT USED
Exchange Range Separation                   ... NOT USED
Multipole approximations                    ... NOT USED
Finite Nucleus Model                        ... NOT USED
CABS basis                                  ... NOT available
Auxiliary Coulomb fitting basis             ... AVAILABLE
   # of basis functions in Aux-J            ...   1319
   # of shells in Aux-J                     ...    425
   Maximum angular momentum in Aux-J        ...      4
Auxiliary J/K fitting basis                 ... NOT available
Auxiliary Correlation fitting basis         ... NOT available
Auxiliary 'external' fitting basis          ... NOT available

Checking pre-screening integrals            ... done (  0.0 sec) Dimension = 183
   => SHARK Basis and OBASIS are compatible. Storing Pre-screening
Shell pair information
Shell pair cut-off parameter TPreSel        ...   2.5e-12
Total number of shell pairs                 ...     16836
Shell pairs after pre-screening             ...     10509
Total number of primitive shell pairs       ...     62832
Primitive shell pairs kept                  ...     25456
          la=0 lb=0:   3067 shell pairs
          la=1 lb=0:   3839 shell pairs
          la=1 lb=1:   1261 shell pairs
          la=2 lb=0:   1323 shell pairs
          la=2 lb=1:    862 shell pairs
          la=2 lb=2:    157 shell pairs

Checking whether 4 symmetric matrices of dimension 401 fit in memory
:Max Core in MB      =   2000.00
 MB in use           =     15.17
 MB left             =   1984.83
 MB needed           =      2.46
 Data fit in memory  = YES
Calculating RI/J V-Matrix + Cholesky decomp.... done (  0.1 sec)
Calculating Nuclear repulsion               ... done (  0.0 sec) ENN=   1739.331287581282 Eh

Diagonalization of the overlap matrix:
Smallest eigenvalue                        ... 2.160e-04
Time for diagonalization                   ...    0.014 sec
Threshold for overlap eigenvalues          ... 1.000e-07
Number of eigenvalues below threshold      ... 0
Time for construction of square roots      ...    0.009 sec
Total time needed                          ...    0.025 sec

-------------------
DFT GRID GENERATION
-------------------

General Integration Accuracy     IntAcc      ... 4.388
Radial Grid Type                 RadialGrid  ... OptM3 with GC (2021)
Angular Grid (max. ang.)         AngularGrid ... 4 (Lebedev-302)
Angular grid pruning method      GridPruning ... 4 (adaptive)
Weight generation scheme         WeightScheme... mBecke (2022)
Basis function cutoff            BFCut       ... 1.0000e-11
Integration weight cutoff        WCut        ... 1.0000e-14
Partially contracted basis set               ... off
Rotationally invariant grid construction     ... off
Angular grids for H and He will be reduced by one unit

Total number of grid points                  ...   185216
Total number of batches                      ...     2912
Average number of points per batch           ...       63
Average number of grid points per atom       ...     5006

--------------------
COSX GRID GENERATION
--------------------

GRIDX 1
-------
General Integration Accuracy     IntAcc      ... 3.816
Radial Grid Type                 RadialGrid  ... OptM3 with GC (2021)
Angular Grid (max. ang.)         AngularGrid ... 1 (Lebedev-50)
Angular grid pruning method      GridPruning ... 4 (adaptive)
Weight generation scheme         WeightScheme... mBecke (2022)
Basis function cutoff            BFCut       ... 1.0000e-11
Integration weight cutoff        WCut        ... 1.0000e-14
Partially contracted basis set               ... on
Rotationally invariant grid construction     ... off
Angular grids for H and He will be reduced by one unit

Total number of grid points                  ...    23524
Total number of batches                      ...      201
Average number of points per batch           ...      117
Average number of grid points per atom       ...      636
UseSFitting                                  ... on

GRIDX 2
-------
General Integration Accuracy     IntAcc      ... 4.020
Radial Grid Type                 RadialGrid  ... OptM3 with GC (2021)
Angular Grid (max. ang.)         AngularGrid ... 2 (Lebedev-110)
Angular grid pruning method      GridPruning ... 4 (adaptive)
Weight generation scheme         WeightScheme... mBecke (2022)
Basis function cutoff            BFCut       ... 1.0000e-11
Integration weight cutoff        WCut        ... 1.0000e-14
Partially contracted basis set               ... on
Rotationally invariant grid construction     ... off
Angular grids for H and He will be reduced by one unit

Total number of grid points                  ...    52149
Total number of batches                      ...      426
Average number of points per batch           ...      122
Average number of grid points per atom       ...     1409
UseSFitting                                  ... on

GRIDX 3
-------
General Integration Accuracy     IntAcc      ... 4.338
Radial Grid Type                 RadialGrid  ... OptM3 with GC (2021)
Angular Grid (max. ang.)         AngularGrid ... 3 (Lebedev-194)
Angular grid pruning method      GridPruning ... 4 (adaptive)
Weight generation scheme         WeightScheme... mBecke (2022)
Basis function cutoff            BFCut       ... 1.0000e-11
Integration weight cutoff        WCut        ... 1.0000e-14
Partially contracted basis set               ... on
Rotationally invariant grid construction     ... off
Angular grids for H and He will be reduced by one unit

Total number of grid points                  ...   114465
Total number of batches                      ...      914
Average number of points per batch           ...      125
Average number of grid points per atom       ...     3094
UseSFitting                                  ... on
Grids setup in   4.8 sec
Initializing property integral containers    ... done (  0.0 sec)

SHARK setup successfully completed in   5.2 seconds

Maximum memory used throughout the entire STARTUP-calculation: 77.0 MB
Occupation numbers will be reassigned to an Aufbau configuration
             **** ENERGY FILE WAS UPDATED (C:\Users\jabreumiranda\Radioprotection_Pipeline_Project\06_Quantum_DFT_ORCA\CHEMBL1683055_neutral_opt.en.tmp) ****
Finished Guess after   0.2 sec
Maximum memory used throughout the entire GUESS-calculation: 28.5 MB
--------------------
CPCM SOLVATION MODEL
--------------------
CPCM parameters:
  Epsilon                                         ...      80.1510
  Refrac                                          ...       1.3328
  Rsolv                                           ...       1.3000
  Surface type                                    ... GAUSSIAN VDW
  Discretization scheme                           ... Constant charge density
    Threshold for H atoms                         ...       5.0000 (charges/Ang^2)
    Threshold for non-H atoms                     ...       5.0000 (charges/Ang^2)
  Epsilon function type                           ...         CPCM
Solvent:                                          ... WATER
Radii:
  Scheme                                          ... Element-dependent radii
  Radius for N  used is    3.5149 Bohr (=   1.8600 Ang.)
  Radius for C  used is    3.8550 Bohr (=   2.0400 Ang.)
  Radius for H  used is    2.4944 Bohr (=   1.3200 Ang.)
Calculating surface                               ...        done! (  0.0s)
Cavity surface points                             ...         3366
Cavity Volume                                     ...    2402.4954
Cavity Surface-area                               ...    1210.0785
Calculating surface distance matrix               ...        done! (  0.1s)
Performing Cholesky decomposition & store         ...        done! (  0.4s)
Overall time for CPCM initialization              ...                 0.6s

----------------------------------------D-I-I-S--------------------------------------------
Iteration    Energy (Eh)           Delta-E    RMSDP     MaxDP     DIISErr   Damp  Time(sec)
-------------------------------------------------------------------------------------------
               ***  Starting incremental Fock matrix formation  ***
                              *** Initializing SOSCF ***
---------------------------------------S-O-S-C-F--------------------------------------
Iteration    Energy (Eh)           Delta-E    RMSDP     MaxDP     MaxGrad    Time(sec)
--------------------------------------------------------------------------------------
    1    -1004.3552209347742519     0.00e+00  4.99e-05  4.89e-03  1.45e-04    28.6
               *** Restarting incremental Fock matrix formation ***
    2    -1004.3552576618928924    -3.67e-05  1.88e-05  1.51e-03  1.70e-04    26.5
    3    -1004.3552610519770951    -3.39e-06  9.60e-06  4.05e-04  5.43e-05    15.9
    4    -1004.3552607126941894     3.39e-07  5.70e-06  2.72e-04  8.40e-05    14.8
    5    -1004.3552613366289279    -6.24e-07  1.06e-06  5.96e-05  7.32e-06    14.0
    6    -1004.3552613268886944     9.74e-09  6.42e-07  3.87e-05  1.32e-05    13.0
                 **** Energy Check signals convergence ****

               *****************************************************
               *                     SUCCESS                       *
               *           SCF CONVERGED AFTER   6 CYCLES          *
               *****************************************************

Recomputing exchange energy using gridx3       ... done (   40.018 sec)
Old exchange energy                            :    -27.199672998 Eh
New exchange energy                            :    -27.199706917 Eh
Exchange energy change after final integration :     -0.000033918 Eh
Total energy after final integration           :  -1004.355295260 Eh
             **** ENERGY FILE WAS UPDATED (C:\Users\jabreumiranda\Radioprotection_Pipeline_Project\06_Quantum_DFT_ORCA\CHEMBL1683055_neutral_opt.en.tmp) ****

----------------
TOTAL SCF ENERGY
----------------

Total Energy       :      -1004.35529525974698 Eh          -27329.89701 eV

Components:
Nuclear Repulsion  :       1739.33128758128191 Eh           47329.61053 eV
Electronic Energy  :      -2743.65102554426358 Eh          -74658.53997 eV
One Electron Energy:      -4815.78305686748081 Eh         -131044.11913 eV
Two Electron Energy:       2072.13203132321723 Eh           56385.57916 eV
CPCM Dielectric    :         -0.03552337841474 Eh              -0.96664 eV

Virial components:
Potential Energy   :      -1998.54116031007652 Eh          -54383.06975 eV
Kinetic Energy     :        994.18586505032943 Eh           27053.17274 eV
Virial Ratio       :          2.01022890242852

DFT components:
N(Alpha)           :       80.999988777612 electrons
N(Beta)            :       80.999988777612 electrons
N(Total)           :      161.999977555223 electrons
E(X)               :     -108.113333435574 Eh       
E(C)               :       -6.529833925576 Eh       
E(XC)              :     -114.643167361150 Eh       

CPCM Solvation Model Properties:
Surface-charge          :         -0.02718144796046
Corrected charge        :         -0.00000000000000
Outlying charge corr.   :          0.00003723913518 Eh               0.00101 eV
Free-energy (cav+disp)  :  This term is not implemented in the current solvation scheme

---------------
SCF CONVERGENCE
---------------

  Last Energy change         ...   -9.7402e-09  Tolerance :   1.0000e-08
  Last MAX-Density change    ...    3.8694e-05  Tolerance :   1.0000e-07
  Last RMS-Density change    ...    6.4195e-07  Tolerance :   5.0000e-09
  Last DIIS Error            ...    2.9267e-03  Tolerance :   5.0000e-07
  Last Orbital Gradient      ...    1.3156e-05  Tolerance :   1.0000e-05
  Last Orbital Rotation      ...    1.7038e-05  Tolerance :   1.0000e-05


Total SCF time: 0 days 0 hours 2 min 45 sec 
Finished LeanSCF after 165.9 sec

Maximum memory used throughout the entire LEANSCF-calculation: 110.2 MB

------------------------------------------------------------------------------
                         ORCA PROPERTY INTEGRAL CALCULATIONS
------------------------------------------------------------------------------

GBWName                                   ... C:\Users\jabreumiranda\Radioprotection_Pipeline_Project\06_Quantum_DFT_ORCA\CHEMBL1683055_neutral_opt.gbw
Number of atoms                           ...     37
Number of basis functions                 ...    401
Max core memory                           ...   2000 MB

Dipole integrals                          ... YES
Quadrupole integrals                      ...  NO
Linear momentum integrals                 ...  NO
Angular momentum integrals                ...  NO
Higher moments length integrals           ...  NO
Higher moments velocity integrals         ...  NO
Kinetic energy integrals                  ...  NO
GIAO right hand sides                     ...  NO
GIAO dipole derivative integrals          ...  NO
SOC integrals                             ...  NO
EPR diamagnetic integrals (GIAO)          ...  NO
EPR gauge integrals                       ...  NO
Field gradient integrals                  ...  NO (   0 nuclei)
Spin-dipole/Fermi contact integrals       ...  NO (   0 nuclei)
Contact density integrals                 ...  NO (   0 nuclei)
Nucleus-orbit integrals                   ...  NO (   0 nuclei)
Geometric perturbations                   ...  NO (  37 nuclei)

Choice of electric origin   ... Center of mass
Position of electric origin ... (  0.0610,  0.0367,  0.0529) 
Choice of magnetic origin   ... GIAO
Position of magnetic origin ... (  0.0000,  0.0000,  0.0000) 

Calculating integrals                     ... Electric Dipole (Length)     done (  0.0 sec)

Property integrals calculated in   0.0 sec

Maximum memory used throughout the entire PROPINT-calculation: 26.9 MB


-------------------------------------------------------------------------------
                          DFT DISPERSION CORRECTION                            
                                                                               
                              DFTD3 V3.1  Rev 1                                
                          USING Becke-Johnson damping                          
-------------------------------------------------------------------------------
-------------------------   ----------------
Dispersion correction           -0.088083205
-------------------------   ----------------


-------------------------   --------------------
FINAL SINGLE POINT ENERGY     -1004.443378464492
-------------------------   --------------------

------------------------------------------------------------------------------
                         ORCA SCF GRADIENT CALCULATION
------------------------------------------------------------------------------

Nuc. rep. gradient        (SHARK) ... done (  0.0 sec)
HCore & Overlap gradient  (SHARK) ... done (  1.2 sec)
Split-RIJ-J gradient      (SHARK) ... done (  7.1 sec)
COSX-gradient                     ... done ( 97.3 sec)
XC gradient                       ... done ( 15.3 sec)
CPCM gradient                     ... done (  5.5 sec)
Dispersion correction             ... done (  0.1 sec)

-------------------
DISPERSION GRADIENT
-------------------

   1   N   :    0.000460415   -0.000209049   -0.000123796
   2   C   :   -0.002621685    0.001891547    0.000911651
   3   N   :    0.000016451   -0.000111253   -0.000021743
   4   C   :    0.001185059   -0.002298473   -0.000774455
   5   C   :    0.000207890    0.000309516    0.000024249
   6   C   :    0.000556389    0.000172755   -0.000084813
   7   C   :    0.000415938   -0.000118904   -0.000107905
   8   C   :   -0.000179007    0.000036550    0.000060873
   9   C   :   -0.000254929    0.000213082    0.000278414
  10   C   :   -0.000074639    0.000347449    0.000359413
  11   C   :   -0.000416163   -0.000157512   -0.000090334
  12   N   :   -0.000136806    0.000236195    0.000238826
  13   C   :    0.000377308    0.000105938    0.000048904
  14   C   :   -0.000425850    0.000151480    0.000196893
  15   C   :   -0.000364581   -0.000006749    0.000041302
  16   C   :   -0.000262404   -0.000205885   -0.000157638
  17   C   :   -0.000161367   -0.000348446   -0.000303431
  18   C   :    0.000334359    0.000143531    0.000091026
  19   N   :    0.000102535   -0.000223754   -0.000226027
  20   C   :   -0.000596680   -0.000078728   -0.000018500
  21   C   :   -0.000121799   -0.000114955   -0.000134219
  22   C   :    0.000132590   -0.000134890   -0.000019511
  23   C   :    0.001846969    0.000173151   -0.000244058
  24   N   :    0.000170383    0.000393468    0.000080975
  25   H   :    0.000206495   -0.000051861   -0.000058912
  26   H   :    0.000169629   -0.000147145   -0.000086231
  27   H   :    0.000128029    0.000293553    0.000049526
  28   H   :    0.000108829    0.000335722    0.000041811
  29   H   :   -0.000018821    0.000243036    0.000264345
  30   H   :   -0.000027790    0.000236577    0.000227815
  31   H   :   -0.000206961    0.000163941    0.000179839
  32   H   :   -0.000278263    0.000012555    0.000047957
  33   H   :   -0.000181768   -0.000169642   -0.000134472
  34   H   :    0.000001515   -0.000233804   -0.000218088
  35   H   :   -0.000040063   -0.000206551   -0.000225139
  36   H   :   -0.000030790   -0.000312671   -0.000042051
  37   H   :   -0.000020416   -0.000329773   -0.000072494

Difference to translation invariance:
           :   -0.0000000000   -0.0000000000    0.0000000000

Difference to rotation invariance:
           :   -0.0000000000   -0.0000000000   -0.0000000000

Norm of the Dispersion gradient    ...    0.0051869320
RMS gradient                       ...    0.0004923218
MAX gradient                       ...    0.0026216853

------------------
CARTESIAN GRADIENT
------------------

   1   N   :    0.000244588   -0.000420017    0.000481150
   2   C   :   -0.000043785    0.000178713   -0.000110672
   3   N   :   -0.000137274    0.000066957   -0.000001905
   4   C   :    0.000054404   -0.000151855   -0.000016080
   5   C   :   -0.000097465    0.000083300    0.000023131
   6   C   :    0.000215978   -0.000130421   -0.000030140
   7   C   :   -0.000468573    0.000170277    0.000035481
   8   C   :    0.000475029   -0.000024068    0.000031325
   9   C   :   -0.000217447   -0.000038417   -0.000055382
  10   C   :    0.000034145   -0.000069471   -0.000069666
  11   C   :    0.000193997   -0.000046085   -0.000056440
  12   N   :   -0.000021590    0.000149276    0.000130554
  13   C   :   -0.000227452   -0.000194792   -0.000148414
  14   C   :    0.000186017    0.000009913   -0.000023566
  15   C   :    0.000010001   -0.000089188   -0.000086881
  16   C   :   -0.000060458    0.000075010    0.000070022
  17   C   :    0.000104194    0.000086597    0.000066357
  18   C   :   -0.000249257    0.000035577    0.000046412
  19   N   :    0.000040508   -0.000147742   -0.000118054
  20   C   :    0.000277986    0.000169374    0.000106427
  21   C   :   -0.000334087    0.000070339    0.000128522
  22   C   :    0.000192044    0.000032797   -0.000038245
  23   C   :   -0.000015113    0.000016690    0.000023156
  24   N   :   -0.000016628    0.000009948   -0.000040314
  25   H   :   -0.000065360    0.000121924   -0.000143306
  26   H   :   -0.000064173    0.000116117   -0.000234037
  27   H   :    0.000016038   -0.000019564    0.000014532
  28   H   :    0.000039872    0.000026565   -0.000009042
  29   H   :    0.000032060   -0.000043975    0.000017604
  30   H   :   -0.000139286   -0.000054621   -0.000023139
  31   H   :    0.000107928    0.000029067    0.000019410
  32   H   :   -0.000009884   -0.000071593   -0.000065893
  33   H   :   -0.000066640    0.000048324    0.000037974
  34   H   :    0.000109093    0.000044097    0.000014967
  35   H   :   -0.000117949   -0.000044421   -0.000004729
  36   H   :    0.000016918    0.000004694   -0.000013212
  37   H   :    0.000001618    0.000000672    0.000042094

Difference to translation invariance:
           :    0.0000000000    0.0000000000    0.0000000000

Difference to rotation invariance:
           :    0.0005470711   -0.0004944976    0.0002035576

Norm of the Cartesian gradient     ...    0.0014377351
RMS gradient                       ...    0.0001364638
MAX gradient                       ...    0.0004811502

-------
TIMINGS
-------

Total SCF gradient time     ....      126.523 sec

Densities                   ....       0.005 sec  (  0.0%)
One electron gradient       ....       1.190 sec  (  0.9%)
RI-J Coulomb gradient       ....       7.094 sec  (  5.6%)
COSX gradient               ....      97.323 sec  ( 76.9%)
XC gradient                 ....      15.307 sec  ( 12.1%)
CPCM gradient               ....       5.509 sec  (  4.4%)
   A-Matrix (El+Nuc)        ....       0.573 sec  (  0.5%)
   Potential                ....       4.936 sec  (  3.9%)

Maximum memory used throughout the entire SCFGRAD-calculation: 59.3 MB
------------------------------------------------------------------------------
                         ORCA GEOMETRY RELAXATION STEP
------------------------------------------------------------------------------

Reading the OPT-File                    .... done
Getting information on internals        .... done
Copying old internal coords+grads       .... done
Making the new internal coordinates     .... (2022 redundants) done
Validating the new internal coordinates .... (2022 redundants) done
Calculating the B-matrix                .... done
Calculating the G,G- and P matrices     .... done
Transforming gradient to internals      .... done
Projecting the internal gradient        .... done
Number of atoms                         ....  37
Number of internal coordinates          .... 207
Current Energy                          .... -1004.443378464 Eh
Current gradient norm                   ....     0.001437735 Eh/bohr
Maximum allowed component of the step   ....  0.300
Current trust radius                    ....  0.700
Updating the Hessian (BFGS)             .... done
Forming the augmented Hessian           .... done
Diagonalizing the augmented Hessian     .... done
Last element of RFO vector              ....  0.999778578
Lowest eigenvalues of augmented Hessian:
 -0.000008649  0.007534266  0.012601676  0.020765805  0.021752642
Length of the computed step             ....  0.021047340
The final length of the internal step   ....  0.021047340
Converting the step to Cartesian space:
 Initial RMS(Int)=    0.0014628912
Transforming coordinates:
 Iter   0:  RMS(Cart)=    0.0031473273 RMS(Int)=    0.0014642692
done
Storing new coordinates                 .... done
The predicted energy change is          ....    -0.000004326
Previously predicted energy change      ....    -0.000009613
Actually observed energy change         ....    -0.000011065
Ratio of predicted to observed change   ....     1.151008641
New trust radius                        ....     0.700000000

                                .--------------------.
          ----------------------|Geometry convergence|-------------------------
          Item                value                   Tolerance       Converged
          ---------------------------------------------------------------------
          Energy change      -0.0000110648            0.0000050000      NO
          RMS gradient        0.0000746485            0.0001000000      YES
          MAX gradient        0.0003006015            0.0003000000      NO
          RMS step            0.0014628912            0.0020000000      YES
          MAX step            0.0137013969            0.0040000000      NO
          -------------------------------------------------------------------------
          ........................................................
          Max(Bonds)      0.0005      Max(Angles)    0.19
          Max(Dihed)        0.79      Max(Improp)    0.00
          ---------------------------------------------------------------------

The optimization has not yet converged - more geometry cycles are needed


    ---------------------------------------------------------------------------
                         Redundant Internal Coordinates
                            (Angstroem and degrees)

        Definition                    Value    dE/dq     Step     New-Value
    ----------------------------------------------------------------------------
     1. B(C   1,N   0)                1.3581  0.000170 -0.0005    1.3576   
     2. B(N   2,C   1)                1.3265  0.000014  0.0002    1.3267   
     3. B(C   3,N   2)                1.3823 -0.000092 -0.0000    1.3823   
     4. B(C   4,C   3)                1.4017  0.000008  0.0001    1.4018   
     5. B(C   5,C   4)                1.3962 -0.000072  0.0001    1.3963   
     6. B(C   6,C   5)                1.4178  0.000073 -0.0002    1.4177   
     7. B(C   7,C   6)                1.4805 -0.000125 -0.0001    1.4804   
     8. B(C   8,C   7)                1.4430  0.000034 -0.0002    1.4428   
     9. B(C   9,C   8)                1.3689  0.000003  0.0000    1.3689   
    10. B(C  10,C   9)                1.4306 -0.000227  0.0001    1.4307   
    11. B(N  11,C  10)                1.3369  0.000063  0.0000    1.3370   
    12. B(C  12,N  11)                1.3427  0.000112  0.0000    1.3427   
    13. B(C  13,C  12)                1.4293 -0.000244  0.0001    1.4294   
    14. B(C  14,C  13)                1.3737  0.000084 -0.0000    1.3736   
    15. B(C  15,C  14)                1.4292 -0.000162  0.0001    1.4292   
    16. B(C  16,C  15)                1.3735  0.000075 -0.0000    1.3734   
    17. B(C  17,C  16)                1.4305 -0.000220  0.0001    1.4306   
    18. B(C  17,C  12)                1.4490 -0.000161  0.0003    1.4494   
    19. B(N  18,C  17)                1.3409  0.000079  0.0000    1.3410   
    20. B(C  19,N  18)                1.3419  0.000107  0.0000    1.3419   
    21. B(C  19,C  10)                1.4492 -0.000197  0.0004    1.4495   
    22. B(C  20,C  19)                1.4250 -0.000301  0.0002    1.4251   
    23. B(C  20,C   7)                1.3842  0.000119 -0.0001    1.3841   
    24. B(C  21,C   6)                1.4131  0.000110 -0.0001    1.4130   
    25. B(C  22,C  21)                1.3876 -0.000058  0.0000    1.3876   
    26. B(C  22,C   3)                1.4255 -0.000108  0.0002    1.4257   
    27. B(N  23,C  22)                1.3866 -0.000005  0.0001    1.3867   
    28. B(N  23,C   1)                1.3764  0.000017  0.0001    1.3765   
    29. B(H  24,N   0)                1.0151  0.000044 -0.0001    1.0150   
    30. B(H  25,N   0)                1.0153  0.000034 -0.0002    1.0152   
    31. B(H  26,C   4)                1.0925 -0.000006  0.0000    1.0925   
    32. B(H  27,C   5)                1.0916  0.000003  0.0001    1.0916   
    33. B(H  28,C   8)                1.0912  0.000003  0.0001    1.0913   
    34. B(H  29,C   9)                1.0922 -0.000001  0.0000    1.0922   
    35. B(H  30,C  13)                1.0922 -0.000001  0.0000    1.0922   
    36. B(H  31,C  14)                1.0928 -0.000004  0.0000    1.0928   
    37. B(H  32,C  15)                1.0929 -0.000006  0.0000    1.0929   
    38. B(H  33,C  16)                1.0922 -0.000000  0.0000    1.0922   
    39. B(H  34,C  20)                1.0911 -0.000004  0.0000    1.0911   
    40. B(H  35,C  21)                1.0910 -0.000011  0.0001    1.0911   
    41. B(H  36,N  23)                1.0145 -0.000008  0.0000    1.0145   
    42. A(C   1,N   0,H  24)          115.54 -0.000184    0.19    115.72   
    43. A(H  24,N   0,H  25)          114.90  0.000046    0.14    115.04   
    44. A(C   1,N   0,H  25)          117.92 -0.000129    0.18    118.10   
    45. A(N   2,C   1,N  23)          112.92 -0.000048    0.00    112.92   
    46. A(N   0,C   1,N  23)          121.76 -0.000023    0.02    121.77   
    47. A(N   0,C   1,N   2)          125.27  0.000072   -0.02    125.25   
    48. A(C   1,N   2,C   3)          105.10  0.000010   -0.00    105.09   
    49. A(N   2,C   3,C  22)          110.32  0.000045    0.00    110.32   
    50. A(C   4,C   3,C  22)          118.77 -0.000013   -0.02    118.76   
    51. A(N   2,C   3,C   4)          130.90 -0.000031    0.01    130.92   
    52. A(C   3,C   4,C   5)          118.63  0.000017   -0.00    118.63   
    53. A(C   5,C   4,H  26)          120.84  0.000013   -0.02    120.82   
    54. A(C   3,C   4,H  26)          120.53 -0.000030    0.02    120.55   
    55. A(C   4,C   5,C   6)          122.42  0.000079    0.00    122.43   
    56. A(C   4,C   5,H  27)          118.37 -0.000090   -0.05    118.32   
    57. A(C   6,C   5,H  27)          119.19  0.000011    0.04    119.23   
    58. A(C   5,C   6,C   7)          120.66  0.000221   -0.03    120.63   
    59. A(C   5,C   6,C  21)          119.16 -0.000192    0.01    119.17   
    60. A(C   7,C   6,C  21)          120.18 -0.000029    0.02    120.20   
    61. A(C   8,C   7,C  20)          118.11 -0.000224    0.01    118.12   
    62. A(C   6,C   7,C  20)          121.72  0.000051   -0.01    121.70   
    63. A(C   6,C   7,C   8)          120.18  0.000174    0.00    120.18   
    64. A(C   7,C   8,H  28)          118.85 -0.000055    0.05    118.90   
    65. A(C   9,C   8,H  28)          119.10  0.000019   -0.06    119.04   
    66. A(C   7,C   8,C   9)          122.03  0.000036    0.01    122.04   
    67. A(C  10,C   9,H  29)          117.80 -0.000167    0.04    117.85   
    68. A(C   8,C   9,H  29)          121.56  0.000143   -0.05    121.51   
    69. A(C   8,C   9,C  10)          120.64  0.000024    0.00    120.64   
    70. A(N  11,C  10,C  19)          121.46  0.000058    0.01    121.47   
    71. A(C   9,C  10,C  19)          118.20 -0.000003   -0.01    118.19   
    72. A(C   9,C  10,N  11)          120.33 -0.000055    0.01    120.34   
    73. A(C  10,N  11,C  12)          117.69 -0.000061   -0.02    117.67   
    74. A(N  11,C  12,C  13)          119.96 -0.000058   -0.00    119.95   
    75. A(C  13,C  12,C  17)          119.05  0.000047   -0.01    119.05   
    76. A(N  11,C  12,C  17)          120.99  0.000011    0.01    121.00   
    77. A(C  14,C  13,H  30)          121.97  0.000124   -0.03    121.94   
    78. A(C  12,C  13,C  14)          120.31 -0.000012    0.00    120.31   
    79. A(C  12,C  13,H  30)          117.73 -0.000112    0.02    117.75   
    80. A(C  13,C  14,C  15)          120.68 -0.000031    0.00    120.69   
    81. A(C  13,C  14,H  31)          120.15  0.000113   -0.02    120.13   
    82. A(C  15,C  14,H  31)          119.17 -0.000083    0.01    119.18   
    83. A(C  16,C  15,H  32)          120.08  0.000107   -0.02    120.06   
    84. A(C  14,C  15,H  32)          119.13 -0.000083    0.01    119.15   
    85. A(C  14,C  15,C  16)          120.79 -0.000024    0.00    120.79   
    86. A(C  15,C  16,H  33)          121.97  0.000127   -0.03    121.94   
    87. A(C  17,C  16,H  33)          117.70 -0.000116    0.03    117.73   
    88. A(C  15,C  16,C  17)          120.33 -0.000011    0.00    120.33   
    89. A(C  16,C  17,N  18)          119.94 -0.000065   -0.00    119.93   
    90. A(C  12,C  17,N  18)          121.22  0.000035    0.01    121.23   
    91. A(C  12,C  17,C  16)          118.84  0.000030   -0.01    118.84   
    92. A(C  17,N  18,C  19)          117.76 -0.000053   -0.02    117.75   
    93. A(N  18,C  19,C  20)          119.87 -0.000061   -0.01    119.86   
    94. A(C  10,C  19,C  20)          119.26  0.000051   -0.00    119.26   
    95. A(C  10,C  19,N  18)          120.87  0.000010    0.01    120.88   
    96. A(C  19,C  20,H  34)          116.64 -0.000188   -0.02    116.63   
    97. A(C   7,C  20,H  34)          121.58  0.000071    0.02    121.60   
    98. A(C   7,C  20,C  19)          121.76  0.000117   -0.00    121.76   
    99. A(C   6,C  21,H  35)          121.14 -0.000041    0.04    121.18   
   100. A(C   6,C  21,C  22)          118.08  0.000112   -0.01    118.07   
   101. A(C  22,C  21,H  35)          120.77 -0.000071   -0.03    120.74   
   102. A(C  21,C  22,N  23)          132.57  0.000008   -0.01    132.56   
   103. A(C   3,C  22,N  23)          104.49 -0.000005    0.00    104.49   
   104. A(C   3,C  22,C  21)          122.94 -0.000003    0.01    122.95   
   105. A(C   1,N  23,C  22)          107.17 -0.000001   -0.01    107.17   
   106. A(C  22,N  23,H  36)          126.75 -0.000007    0.01    126.75   
   107. A(C   1,N  23,H  36)          126.07  0.000008    0.00    126.07   
   108. D(N   2,C   1,N   0,H  24)    -17.60 -0.000145    0.01    -17.59   
   109. D(N  23,C   1,N   0,H  25)     24.00  0.000222   -0.79     23.22   
   110. D(N  23,C   1,N   0,H  24)    165.39 -0.000147   -0.04    165.35   
   111. D(N   2,C   1,N   0,H  25)   -158.99  0.000223   -0.73   -159.72   
   112. D(C   3,N   2,C   1,N   0)   -177.10  0.000001   -0.07   -177.17   
   113. D(C   3,N   2,C   1,N  23)      0.14  0.000002   -0.02      0.11   
   114. D(C   4,C   3,N   2,C   1)    179.55  0.000003   -0.00    179.55   
   115. D(C  22,C   3,N   2,C   1)     -0.25 -0.000002    0.02     -0.23   
   116. D(H  26,C   4,C   3,N   2)      0.66 -0.000009    0.03      0.69   
   117. D(H  26,C   4,C   3,C  22)   -179.55 -0.000003    0.00   -179.55   
   118. D(C   5,C   4,C   3,C  22)      0.25  0.000001   -0.00      0.25   
   119. D(C   5,C   4,C   3,N   2)   -179.54 -0.000004    0.03   -179.51   
   120. D(H  27,C   5,C   4,C   3)   -178.75  0.000003   -0.03   -178.78   
   121. D(C   6,C   5,C   4,C   3)     -0.47  0.000001   -0.01     -0.47   
   122. D(C   6,C   5,C   4,H  26)    179.34  0.000005   -0.01    179.32   
   123. D(H  27,C   5,C   4,H  26)      1.05  0.000007   -0.04      1.02   
   124. D(C  21,C   6,C   5,H  27)    178.62 -0.000006    0.04    178.66   
   125. D(C  21,C   6,C   5,C   4)      0.35 -0.000002    0.02      0.37   
   126. D(C   7,C   6,C   5,H  27)     -0.75 -0.000012    0.04     -0.71   
   127. D(C   7,C   6,C   5,C   4)   -179.02 -0.000008    0.01   -179.00   
   128. D(C  20,C   7,C   6,C  21)    -27.76  0.000013   -0.15    -27.91   
   129. D(C   8,C   7,C   6,C  21)    152.01  0.000021   -0.16    151.86   
   130. D(C  20,C   7,C   6,C   5)    151.60  0.000018   -0.14    151.46   
   131. D(C   8,C   7,C   6,C   5)    -28.62  0.000027   -0.15    -28.77   
   132. D(H  28,C   8,C   7,C  20)    178.48 -0.000020    0.05    178.53   
   133. D(H  28,C   8,C   7,C   6)     -1.30 -0.000029    0.05     -1.24   
   134. D(C   9,C   8,C   7,C  20)     -0.03 -0.000016    0.03      0.00   
   135. D(C   9,C   8,C   7,C   6)   -179.81 -0.000025    0.04   -179.77   
   136. D(H  29,C   9,C   8,C   7)    179.33  0.000005   -0.02    179.31   
   137. D(C  10,C   9,C   8,H  28)   -178.59  0.000010   -0.03   -178.62   
   138. D(C  10,C   9,C   8,C   7)     -0.08  0.000005   -0.01     -0.10   
   139. D(H  29,C   9,C   8,H  28)      0.82  0.000010   -0.03      0.79   
   140. D(C  19,C  10,C   9,H  29)   -179.22  0.000007   -0.00   -179.23   
   141. D(C  19,C  10,C   9,C   8)      0.21  0.000009   -0.01      0.20   
   142. D(N  11,C  10,C   9,H  29)      0.71  0.000006    0.00      0.71   
   143. D(N  11,C  10,C   9,C   8)   -179.86  0.000008   -0.00   -179.86   
   144. D(C  12,N  11,C  10,C  19)     -0.27 -0.000000    0.01     -0.26   
   145. D(C  12,N  11,C  10,C   9)    179.80  0.000000    0.00    179.80   
   146. D(C  17,C  12,N  11,C  10)      0.03  0.000003    0.00      0.04   
   147. D(C  13,C  12,N  11,C  10)   -179.91  0.000003   -0.00   -179.92   
   148. D(H  30,C  13,C  12,C  17)    179.97 -0.000001    0.01    179.98   
   149. D(H  30,C  13,C  12,N  11)     -0.08 -0.000001    0.01     -0.07   
   150. D(C  14,C  13,C  12,C  17)     -0.05 -0.000000    0.01     -0.05   
   151. D(C  14,C  13,C  12,N  11)    179.90 -0.000000    0.01    179.91   
   152. D(H  31,C  14,C  13,H  30)     -0.02  0.000001   -0.00     -0.02   
   153. D(H  31,C  14,C  13,C  12)   -179.99 -0.000000   -0.00   -179.99   
   154. D(C  15,C  14,C  13,H  30)    179.98  0.000001    0.00    179.98   
   155. D(C  15,C  14,C  13,C  12)      0.01 -0.000000    0.00      0.01   
   156. D(H  32,C  15,C  14,H  31)      0.02  0.000002   -0.01      0.02   
   157. D(H  32,C  15,C  14,C  13)   -179.98  0.000002   -0.01   -179.98   
   158. D(C  16,C  15,C  14,H  31)   -179.98  0.000002   -0.00   -179.98   
   159. D(C  16,C  15,C  14,C  13)      0.02  0.000002   -0.01      0.02   
   160. D(H  33,C  16,C  15,H  32)     -0.00 -0.000000    0.00     -0.00   
   161. D(H  33,C  16,C  15,C  14)    180.00  0.000000    0.00    180.00   
   162. D(C  17,C  16,C  15,H  32)    179.98 -0.000003    0.00    179.99   
   163. D(C  17,C  16,C  15,C  14)     -0.02 -0.000002    0.00     -0.01   
   164. D(C  12,C  17,C  16,H  33)    179.96 -0.000001    0.01    179.97   
   165. D(C  12,C  17,C  16,C  15)     -0.03  0.000001    0.00     -0.02   
   166. D(N  18,C  17,C  12,C  13)   -179.93 -0.000001   -0.01   -179.94   
   167. D(N  18,C  17,C  12,N  11)      0.12 -0.000001   -0.01      0.11   
   168. D(C  16,C  17,C  12,C  13)      0.06 -0.000000   -0.01      0.05   
   169. D(N  18,C  17,C  16,C  15)    179.96  0.000002    0.00    179.97   
   170. D(C  16,C  17,C  12,N  11)   -179.89 -0.000000   -0.01   -179.90   
   171. D(N  18,C  17,C  16,H  33)     -0.05 -0.000000    0.01     -0.04   
   172. D(C  19,N  18,C  17,C  16)    179.98 -0.000006    0.01    179.99   
   173. D(C  19,N  18,C  17,C  12)     -0.03 -0.000005    0.01     -0.02   
   174. D(C  20,C  19,N  18,C  17)   -179.67  0.000012   -0.01   -179.68   
   175. D(C  10,C  19,N  18,C  17)     -0.20  0.000009   -0.00     -0.20   
   176. D(C  20,C  19,C  10,N  11)    179.84 -0.000010    0.00    179.84   
   177. D(C  20,C  19,C  10,C   9)     -0.22 -0.000011    0.01     -0.22   
   178. D(N  18,C  19,C  10,N  11)      0.36 -0.000006   -0.01      0.36   
   179. D(N  18,C  19,C  10,C   9)   -179.70 -0.000007   -0.00   -179.70   
   180. D(H  34,C  20,C  19,N  18)      0.98 -0.000004   -0.01      0.98   
   181. D(H  34,C  20,C  19,C  10)   -178.50  0.000000   -0.01   -178.51   
   182. D(C   7,C  20,C  19,N  18)    179.60 -0.000005    0.02    179.62   
   183. D(C   7,C  20,C  19,C  10)      0.12 -0.000001    0.01      0.13   
   184. D(H  34,C  20,C   7,C   8)    178.56  0.000010   -0.00    178.55   
   185. D(H  34,C  20,C   7,C   6)     -1.66  0.000019   -0.01     -1.67   
   186. D(C  19,C  20,C   7,C   8)      0.01  0.000014   -0.03     -0.02   
   187. D(C  19,C  20,C   7,C   6)    179.79  0.000023   -0.04    179.75   
   188. D(H  35,C  21,C   6,C   7)     -2.24  0.000011    0.01     -2.23   
   189. D(H  35,C  21,C   6,C   5)    178.39  0.000003    0.01    178.39   
   190. D(C  22,C  21,C   6,C   7)    179.35  0.000008   -0.01    179.33   
   191. D(C  22,C  21,C   6,C   5)     -0.03  0.000000   -0.02     -0.05   
   192. D(N  23,C  22,C  21,H  35)      0.92 -0.000001   -0.02      0.89   
   193. D(N  23,C  22,C  21,C   6)    179.34  0.000003    0.00    179.34   
   194. D(C   3,C  22,C  21,H  35)   -178.60 -0.000001   -0.02   -178.61   
   195. D(C   3,C  22,C  21,C   6)     -0.18  0.000003    0.01     -0.17   
   196. D(N  23,C  22,C   3,C   4)   -179.56 -0.000004    0.00   -179.56   
   197. D(N  23,C  22,C   3,N   2)      0.27  0.000001   -0.02      0.25   
   198. D(C  21,C  22,C   3,C   4)      0.07 -0.000004   -0.00      0.07   
   199. D(C  21,C  22,C   3,N   2)    179.90  0.000001   -0.02    179.87   
   200. D(H  36,N  23,C  22,C  21)     -0.73 -0.000017    0.14     -0.59   
   201. D(H  36,N  23,C  22,C   3)    178.85 -0.000017    0.13    178.98   
   202. D(C   1,N  23,C  22,C  21)   -179.76  0.000001    0.01   -179.74   
   203. D(C   1,N  23,C  22,C   3)     -0.18  0.000001    0.00     -0.17   
   204. D(H  36,N  23,C   1,N   2)   -179.01  0.000016   -0.12   -179.12   
   205. D(H  36,N  23,C   1,N   0)     -1.66  0.000020   -0.07     -1.73   
   206. D(C  22,N  23,C   1,N   2)      0.03 -0.000002    0.01      0.04   
   207. D(C  22,N  23,C   1,N   0)    177.38  0.000002    0.06    177.43   
    ----------------------------------------------------------------------------

Geometry step timings:
Preparation and reading OPT file:      0.010 s (31.250 %)
Internal coordinates            :      0.000 s ( 0.000 %)
B/P matrices and projection     :      0.004 s (12.500 %)
Hessian update/contruction      :      0.012 s (37.500 %)
Making the step                 :      0.002 s ( 6.250 %)
Converting the step to Cartesian:      0.001 s ( 3.125 %)
Storing new data                :      0.000 s ( 0.000 %)
Checking convergence            :      0.000 s ( 0.000 %)
Final printing                  :      0.003 s ( 9.375 %)
Total time                      :      0.032 s

Time for energy+gradient        :    298.549 s
Time for complete geometry iter :    298.703 s

         *************************************************************
         *                GEOMETRY OPTIMIZATION CYCLE   9            *
         *************************************************************
---------------------------------
CARTESIAN COORDINATES (ANGSTROEM)
---------------------------------
  N      7.081547   -1.698430   -1.205408
  C      5.982089   -0.966059   -0.892488
  N      5.985350    0.321528   -0.572656
  C      4.669629    0.621355   -0.273260
  C      4.071649    1.821299    0.136150
  C      2.697325    1.833923    0.382576
  C      1.886070    0.682123    0.224402
  C      0.428563    0.745908    0.475694
  C     -0.102906    1.692820    1.425732
  C     -1.442980    1.781232    1.690768
  C     -2.376201    0.926458    1.023350
  N     -3.684045    1.019865    1.284677
  C     -4.512304    0.194351    0.624779
  C     -5.920087    0.253820    0.865231
  C     -6.774261   -0.585918    0.192826
  C     -6.272451   -1.530437   -0.755211
  C     -4.926600   -1.619335   -1.014186
  C     -4.002347   -0.763632   -0.335890
  N     -2.689862   -0.857672   -0.594345
  C     -1.862337   -0.033717    0.066722
  C     -0.459528   -0.090478   -0.178105
  C      2.483479   -0.529368   -0.190165
  C      3.850795   -0.535638   -0.426751
  N      4.729623   -1.532750   -0.822168
  H      7.908021   -1.166175   -1.458030
  H      6.949762   -2.559972   -1.725924
  H      4.670207    2.727369    0.255995
  H      2.233356    2.775740    0.681533
  H      0.588019    2.341851    1.966358
  H     -1.834892    2.493732    2.419875
  H     -6.281329    0.983235    1.593560
  H     -7.850013   -0.537820    0.378795
  H     -6.974663   -2.186173   -1.276073
  H     -4.522771   -2.334050   -1.734647
  H     -0.122146   -0.811429   -0.924396
  H      1.894824   -1.441753   -0.297295
  H      4.501414   -2.502905   -1.011926

----------------------------
CARTESIAN COORDINATES (A.U.)
----------------------------
  NO LB      ZA    FRAG     MASS         X           Y           Z
   0 N     7.0000    0    14.007   13.382184   -3.209567   -2.277891
   1 C     6.0000    0    12.011   11.304510   -1.825588   -1.686558
   2 N     7.0000    0    14.007   11.310673    0.607600   -1.082163
   3 C     6.0000    0    12.011    8.824320    1.174192   -0.516387
   4 C     6.0000    0    12.011    7.694301    3.441755    0.257286
   5 C     6.0000    0    12.011    5.097206    3.465612    0.722965
   6 C     6.0000    0    12.011    3.564155    1.289027    0.424058
   7 C     6.0000    0    12.011    0.809866    1.409562    0.898932
   8 C     6.0000    0    12.011   -0.194464    3.198965    2.694243
   9 C     6.0000    0    12.011   -2.726837    3.366041    3.195088
  10 C     6.0000    0    12.011   -4.490369    1.750752    1.933851
  11 N     7.0000    0    14.007   -6.961837    1.927266    2.427688
  12 C     6.0000    0    12.011   -8.527019    0.367270    1.180662
  13 C     6.0000    0    12.011  -11.187343    0.479650    1.635049
  14 C     6.0000    0    12.011  -12.801497   -1.107224    0.364389
  15 C     6.0000    0    12.011  -11.853214   -2.892106   -1.427142
  16 C     6.0000    0    12.011   -9.309925   -3.060100   -1.916534
  17 C     6.0000    0    12.011   -7.563339   -1.443055   -0.634740
  18 N     7.0000    0    14.007   -5.083103   -1.620766   -1.123149
  19 C     6.0000    0    12.011   -3.519307   -0.063716    0.126087
  20 C     6.0000    0    12.011   -0.868382   -0.170979   -0.336569
  21 C     6.0000    0    12.011    4.693095   -1.000361   -0.359359
  22 C     6.0000    0    12.011    7.276949   -1.012208   -0.806442
  23 N     7.0000    0    14.007    8.937691   -2.896478   -1.553672
  24 H     1.0000    0     1.008   14.943994   -2.203750   -2.755277
  25 H     1.0000    0     1.008   13.133146   -4.837645   -3.261524
  26 H     1.0000    0     1.008    8.825413    5.153980    0.483760
  27 H     1.0000    0     1.008    4.220431    5.245389    1.287911
  28 H     1.0000    0     1.008    1.111195    4.425457    3.715878
  29 H     1.0000    0     1.008   -3.467443    4.712470    4.572900
  30 H     1.0000    0     1.008  -11.869992    1.858046    3.011391
  31 H     1.0000    0     1.008  -14.834374   -1.016333    0.715819
  32 H     1.0000    0     1.008  -13.180203   -4.131269   -2.411429
  33 H     1.0000    0     1.008   -8.546798   -4.410716   -3.278007
  34 H     1.0000    0     1.008   -0.230822   -1.533379   -1.746856
  35 H     1.0000    0     1.008    3.580699   -2.724518   -0.561807
  36 H     1.0000    0     1.008    8.506440   -4.729805   -1.912262

--------------------------------
INTERNAL COORDINATES (ANGSTROEM)
--------------------------------
 N      0   0   0     0.000000000000     0.00000000     0.00000000
 C      1   0   0     1.357605213860     0.00000000     0.00000000
 N      2   1   0     1.326719657283   125.24827263     0.00000000
 C      3   2   1     1.382265163264   105.09308722   182.82892679
 C      4   3   2     1.401806016613   130.91786331   179.55131457
 C      5   4   3     1.396298953520   118.62979187   180.48843709
 C      6   5   4     1.417673078845   122.42543278   359.52622131
 C      7   6   5     1.480385984667   120.62754470   180.99714216
 C      8   7   6     1.442799769083   120.17995516   331.22524823
 C      9   8   7     1.368889846921   122.03802360   180.22774393
 C     10   9   8     1.430729575568   120.63943226   359.90164461
 N     11  10   9     1.336964399530   120.34073016   180.14313356
 C     12  11  10     1.342740116632   117.67089774   179.80412225
 C     13  12  11     1.429407903081   119.95109573   180.08485216
 C     14  13  12     1.373644303430   120.30787843   179.90610897
 C     15  14  13     1.429231988050   120.68823165     0.00000000
 C     16  15  14     1.373421032635   120.79107927     0.00000000
 C     17  16  15     1.430579363310   120.32988870     0.00000000
 N     18  17  16     1.340991320889   119.93421353   179.96553429
 C     19  18  17     1.341905177748   117.74668122   179.99353476
 C      8   7   6     1.384088583596   121.70234150   151.45609380
 C      7   6   5     1.412966875436   119.16964284     0.37360664
 C     22   7   6     1.387647708822   118.06723890   359.95344231
 N      2   1   3     1.376501369339   121.77348957   182.94064092
 H      1   2   3     1.014974484604   115.71671205   342.40831058
 H      1   2   3     1.015164404793   118.09104237   200.27567586
 H      5   4   3     1.092519433883   120.54678667     0.68917502
 H      6   5   4     1.091633022265   118.32467408   181.22107674
 H      9   8   7     1.091281629390   118.90235794   358.75517840
 H     10   9   8     1.092175598276   121.51138249   179.31076767
 H     14  13  12     1.092248238824   117.75443622   359.93301938
 H     15  14  13     1.092767123975   120.12818993   180.01110568
 H     16  15  14     1.092881246329   119.14741032   180.01781605
 H     17  16  15     1.092226690866   121.94090105   179.99691822
 H     21   8   7     1.091122549323   121.59837282   358.32724515
 H     22   7   6     1.091071885511   121.17723861   178.39322782
 H     24   2   1     1.014537892026   126.07140822   358.27173276

---------------------------
INTERNAL COORDINATES (A.U.)
---------------------------
 N      0   0   0     0.000000000000     0.00000000     0.00000000
 C      1   0   0     2.565502052179     0.00000000     0.00000000
 N      2   1   0     2.507136808754   125.24827263     0.00000000
 C      3   2   1     2.612102603030   105.09308722   182.82892679
 C      4   3   2     2.649029464281   130.91786331   179.55131457
 C      5   4   3     2.638622623234   118.62979187   180.48843709
 C      6   5   4     2.679013866449   122.42543278   359.52622131
 C      7   6   5     2.797524083516   120.62754470   180.99714216
 C      8   7   6     2.726496429651   120.17995516   331.22524823
 C      9   8   7     2.586826918185   122.03802360   180.22774393
 C     10   9   8     2.703687069524   120.63943226   359.90164461
 N     11  10   9     2.526496565914   120.34073016   180.14313356
 C     12  11  10     2.537411089464   117.67089774   179.80412225
 C     13  12  11     2.701189470486   119.95109573   180.08485216
 C     14  13  12     2.595811538903   120.30787843   179.90610897
 C     15  14  13     2.700857039254   120.68823165     0.00000000
 C     16  15  14     2.595389618247   120.79107927     0.00000000
 C     17  16  15     2.703403209495   120.32988870     0.00000000
 N     18  17  16     2.534106344446   119.93421353   179.96553429
 C     19  18  17     2.535833283635   117.74668122   179.99353476
 C      8   7   6     2.615548368084   121.70234150   151.45609380
 C      7   6   5     2.670120430876   119.16964284     0.37360664
 C     22   7   6     2.622274140037   118.06723890   359.95344231
 N      2   1   3     2.601210611018   121.77348957   182.94064092
 H      1   2   3     1.918023808820   115.71671205   342.40831058
 H      1   2   3     1.918382705963   118.09104237   200.27567586
 H      5   4   3     2.064562526026   120.54678667     0.68917502
 H      6   5   4     2.062887450826   118.32467408   181.22107674
 H      9   8   7     2.062223414526   118.90235794   358.75517840
 H     10   9   8     2.063912770892   121.51138249   179.31076767
 H     14  13  12     2.064050041636   117.75443622   359.93301938
 H     15  14  13     2.065030592466   120.12818993   180.01110568
 H     16  15  14     2.065246252460   119.14741032   180.01781605
 H     17  16  15     2.064009321896   121.94090105   179.99691822
 H     21   8   7     2.061922796767   121.59837282   358.32724515
 H     22   7   6     2.061827056038   121.17723861   178.39322782
 H     24   2   1     1.917198768415   126.07140822   358.27173276

------------------------------------------------------------------------------
                   ___                                                        
                  /   \      - P O W E R E D   B Y -                         
                 /     \                                                     
                 |  |  |   _    _      __       _____    __    __             
                 |  |  |  | |  | |    /  \     |  _  \  |  |  /  |          
                  \  \/   | |  | |   /    \    | | | |  |  | /  /          
                 / \  \   | |__| |  /  /\  \   | |_| |  |  |/  /          
                |  |  |   |  __  | /  /__\  \  |    /   |      \           
                |  |  |   | |  | | |   __   |  |    \   |  |\   \          
                \     /   | |  | | |  |  |  |  | |\  \  |  | \   \       
                 \___/    |_|  |_| |__|  |__|  |_| \__\ |__|  \__/        
                                                                              
                      - O R C A' S   B I G   F R I E N D -                    
                                      &                                       
                       - I N T E G R A L  F E E D E R -                       
                                                                              
 v1 FN, 2020, v2 2021, v3 2022-2024                                           
------------------------------------------------------------------------------


----------------------
SHARK INTEGRAL PACKAGE
----------------------

Number of atoms                             ...     37
Number of basis functions                   ...    401
Number of shells                            ...    183
Maximum angular momentum                    ...      2
Integral batch strategy                     ... SHARK/LIBINT Hybrid
RI-J (if used) integral strategy            ... SPLIT-RIJ (Revised 2003 algorithm where possible)
Printlevel                                  ...      1
Contraction scheme used                     ... SEGMENTED contraction
Prescreening option                         ... SCHWARTZ
   Thresh                                   ... 2.500e-11
   Tcut                                     ... 2.500e-12
   Tpresel                                  ... 2.500e-12 
Coulomb Range Separation                    ... NOT USED
Exchange Range Separation                   ... NOT USED
Multipole approximations                    ... NOT USED
Finite Nucleus Model                        ... NOT USED
CABS basis                                  ... NOT available
Auxiliary Coulomb fitting basis             ... AVAILABLE
   # of basis functions in Aux-J            ...   1319
   # of shells in Aux-J                     ...    425
   Maximum angular momentum in Aux-J        ...      4
Auxiliary J/K fitting basis                 ... NOT available
Auxiliary Correlation fitting basis         ... NOT available
Auxiliary 'external' fitting basis          ... NOT available

Checking pre-screening integrals            ... done (  0.0 sec) Dimension = 183
   => SHARK Basis and OBASIS are compatible. Storing Pre-screening
Shell pair information
Shell pair cut-off parameter TPreSel        ...   2.5e-12
Total number of shell pairs                 ...     16836
Shell pairs after pre-screening             ...     10508
Total number of primitive shell pairs       ...     62832
Primitive shell pairs kept                  ...     25455
          la=0 lb=0:   3067 shell pairs
          la=1 lb=0:   3839 shell pairs
          la=1 lb=1:   1260 shell pairs
          la=2 lb=0:   1323 shell pairs
          la=2 lb=1:    862 shell pairs
          la=2 lb=2:    157 shell pairs

Checking whether 4 symmetric matrices of dimension 401 fit in memory
:Max Core in MB      =   2000.00
 MB in use           =     15.17
 MB left             =   1984.83
 MB needed           =      2.46
 Data fit in memory  = YES
Calculating RI/J V-Matrix + Cholesky decomp.... done (  0.1 sec)
Calculating Nuclear repulsion               ... done (  0.0 sec) ENN=   1739.289428160589 Eh

Diagonalization of the overlap matrix:
Smallest eigenvalue                        ... 2.162e-04
Time for diagonalization                   ...    0.014 sec
Threshold for overlap eigenvalues          ... 1.000e-07
Number of eigenvalues below threshold      ... 0
Time for construction of square roots      ...    0.009 sec
Total time needed                          ...    0.024 sec

-------------------
DFT GRID GENERATION
-------------------

General Integration Accuracy     IntAcc      ... 4.388
Radial Grid Type                 RadialGrid  ... OptM3 with GC (2021)
Angular Grid (max. ang.)         AngularGrid ... 4 (Lebedev-302)
Angular grid pruning method      GridPruning ... 4 (adaptive)
Weight generation scheme         WeightScheme... mBecke (2022)
Basis function cutoff            BFCut       ... 1.0000e-11
Integration weight cutoff        WCut        ... 1.0000e-14
Partially contracted basis set               ... off
Rotationally invariant grid construction     ... off
Angular grids for H and He will be reduced by one unit

Total number of grid points                  ...   185210
Total number of batches                      ...     2912
Average number of points per batch           ...       63
Average number of grid points per atom       ...     5006

--------------------
COSX GRID GENERATION
--------------------

GRIDX 1
-------
General Integration Accuracy     IntAcc      ... 3.816
Radial Grid Type                 RadialGrid  ... OptM3 with GC (2021)
Angular Grid (max. ang.)         AngularGrid ... 1 (Lebedev-50)
Angular grid pruning method      GridPruning ... 4 (adaptive)
Weight generation scheme         WeightScheme... mBecke (2022)
Basis function cutoff            BFCut       ... 1.0000e-11
Integration weight cutoff        WCut        ... 1.0000e-14
Partially contracted basis set               ... on
Rotationally invariant grid construction     ... off
Angular grids for H and He will be reduced by one unit

Total number of grid points                  ...    23524
Total number of batches                      ...      201
Average number of points per batch           ...      117
Average number of grid points per atom       ...      636
UseSFitting                                  ... on

GRIDX 2
-------
General Integration Accuracy     IntAcc      ... 4.020
Radial Grid Type                 RadialGrid  ... OptM3 with GC (2021)
Angular Grid (max. ang.)         AngularGrid ... 2 (Lebedev-110)
Angular grid pruning method      GridPruning ... 4 (adaptive)
Weight generation scheme         WeightScheme... mBecke (2022)
Basis function cutoff            BFCut       ... 1.0000e-11
Integration weight cutoff        WCut        ... 1.0000e-14
Partially contracted basis set               ... on
Rotationally invariant grid construction     ... off
Angular grids for H and He will be reduced by one unit

Total number of grid points                  ...    52153
Total number of batches                      ...      426
Average number of points per batch           ...      122
Average number of grid points per atom       ...     1410
UseSFitting                                  ... on

GRIDX 3
-------
General Integration Accuracy     IntAcc      ... 4.338
Radial Grid Type                 RadialGrid  ... OptM3 with GC (2021)
Angular Grid (max. ang.)         AngularGrid ... 3 (Lebedev-194)
Angular grid pruning method      GridPruning ... 4 (adaptive)
Weight generation scheme         WeightScheme... mBecke (2022)
Basis function cutoff            BFCut       ... 1.0000e-11
Integration weight cutoff        WCut        ... 1.0000e-14
Partially contracted basis set               ... on
Rotationally invariant grid construction     ... off
Angular grids for H and He will be reduced by one unit

Total number of grid points                  ...   114467
Total number of batches                      ...      915
Average number of points per batch           ...      125
Average number of grid points per atom       ...     3094
UseSFitting                                  ... on
Grids setup in   4.6 sec
Initializing property integral containers    ... done (  0.0 sec)

SHARK setup successfully completed in   5.0 seconds

Maximum memory used throughout the entire STARTUP-calculation: 77.0 MB
Occupation numbers will be reassigned to an Aufbau configuration
             **** ENERGY FILE WAS UPDATED (C:\Users\jabreumiranda\Radioprotection_Pipeline_Project\06_Quantum_DFT_ORCA\CHEMBL1683055_neutral_opt.en.tmp) ****
Finished Guess after   0.2 sec
Maximum memory used throughout the entire GUESS-calculation: 28.5 MB
--------------------
CPCM SOLVATION MODEL
--------------------
CPCM parameters:
  Epsilon                                         ...      80.1510
  Refrac                                          ...       1.3328
  Rsolv                                           ...       1.3000
  Surface type                                    ... GAUSSIAN VDW
  Discretization scheme                           ... Constant charge density
    Threshold for H atoms                         ...       5.0000 (charges/Ang^2)
    Threshold for non-H atoms                     ...       5.0000 (charges/Ang^2)
  Epsilon function type                           ...         CPCM
Solvent:                                          ... WATER
Radii:
  Scheme                                          ... Element-dependent radii
  Radius for N  used is    3.5149 Bohr (=   1.8600 Ang.)
  Radius for C  used is    3.8550 Bohr (=   2.0400 Ang.)
  Radius for H  used is    2.4944 Bohr (=   1.3200 Ang.)
Calculating surface                               ...        done! (  0.0s)
Cavity surface points                             ...         3370
Cavity Volume                                     ...    2402.5064
Cavity Surface-area                               ...    1210.0966
Calculating surface distance matrix               ...        done! (  0.1s)
Performing Cholesky decomposition & store         ...        done! (  0.4s)
Overall time for CPCM initialization              ...                 0.5s

----------------------------------------D-I-I-S--------------------------------------------
Iteration    Energy (Eh)           Delta-E    RMSDP     MaxDP     DIISErr   Damp  Time(sec)
-------------------------------------------------------------------------------------------
               ***  Starting incremental Fock matrix formation  ***
                              *** Initializing SOSCF ***
---------------------------------------S-O-S-C-F--------------------------------------
Iteration    Energy (Eh)           Delta-E    RMSDP     MaxDP     MaxGrad    Time(sec)
--------------------------------------------------------------------------------------
    1    -1004.3552399898846943     0.00e+00  4.11e-05  3.82e-03  9.91e-05    26.1
               *** Restarting incremental Fock matrix formation ***
    2    -1004.3552677788040910    -2.78e-05  1.57e-05  1.18e-03  1.14e-04    28.4
    3    -1004.3552706993511947    -2.92e-06  6.52e-06  2.45e-04  4.39e-05    15.9
    4    -1004.3552705239742409     1.75e-07  3.70e-06  1.35e-04  8.08e-05    14.0
    5    -1004.3552708484687628    -3.24e-07  7.45e-07  3.43e-05  4.26e-06    13.2
    6    -1004.3552708499616983    -1.49e-09  4.37e-07  2.31e-05  7.80e-06    11.0
                 **** Energy Check signals convergence ****

               *****************************************************
               *                     SUCCESS                       *
               *           SCF CONVERGED AFTER   6 CYCLES          *
               *****************************************************

Recomputing exchange energy using gridx3       ... done (   40.403 sec)
Old exchange energy                            :    -27.199533891 Eh
New exchange energy                            :    -27.199565548 Eh
Exchange energy change after final integration :     -0.000031657 Eh
Total energy after final integration           :  -1004.355302504 Eh
             **** ENERGY FILE WAS UPDATED (C:\Users\jabreumiranda\Radioprotection_Pipeline_Project\06_Quantum_DFT_ORCA\CHEMBL1683055_neutral_opt.en.tmp) ****

----------------
TOTAL SCF ENERGY
----------------

Total Energy       :      -1004.35530250381362 Eh          -27329.89721 eV

Components:
Nuclear Repulsion  :       1739.28942816058884 Eh           47328.47147 eV
Electronic Energy  :      -2743.60911725888764 Eh          -74657.39959 eV
One Electron Energy:      -4815.70839976481329 Eh         -131042.08761 eV
Two Electron Energy:       2072.09928250592566 Eh           56384.68802 eV
CPCM Dielectric    :         -0.03558174869053 Eh              -0.96823 eV

Virial components:
Potential Energy   :      -1998.53753057185986 Eh          -54382.97098 eV
Kinetic Energy     :        994.18222806804636 Eh           27053.07378 eV
Virial Ratio       :          2.01023260540026

DFT components:
N(Alpha)           :       80.999987680544 electrons
N(Beta)            :       80.999987680544 electrons
N(Total)           :      161.999975361089 electrons
E(X)               :     -108.112857831331 Eh       
E(C)               :       -6.529796321036 Eh       
E(XC)              :     -114.642654152367 Eh       

CPCM Solvation Model Properties:
Surface-charge          :         -0.02717939389907
Corrected charge        :         -0.00000000000000
Outlying charge corr.   :          0.00003723292287 Eh               0.00101 eV
Free-energy (cav+disp)  :  This term is not implemented in the current solvation scheme

---------------
SCF CONVERGENCE
---------------

  Last Energy change         ...    1.4929e-09  Tolerance :   1.0000e-08
  Last MAX-Density change    ...    2.3077e-05  Tolerance :   1.0000e-07
  Last RMS-Density change    ...    4.3746e-07  Tolerance :   5.0000e-09
  Last DIIS Error            ...    2.2696e-03  Tolerance :   5.0000e-07
  Last Orbital Gradient      ...    7.8046e-06  Tolerance :   1.0000e-05
  Last Orbital Rotation      ...    1.1736e-05  Tolerance :   1.0000e-05


Total SCF time: 0 days 0 hours 2 min 39 sec 
Finished LeanSCF after 159.9 sec

Maximum memory used throughout the entire LEANSCF-calculation: 110.4 MB

------------------------------------------------------------------------------
                         ORCA PROPERTY INTEGRAL CALCULATIONS
------------------------------------------------------------------------------

GBWName                                   ... C:\Users\jabreumiranda\Radioprotection_Pipeline_Project\06_Quantum_DFT_ORCA\CHEMBL1683055_neutral_opt.gbw
Number of atoms                           ...     37
Number of basis functions                 ...    401
Max core memory                           ...   2000 MB

Dipole integrals                          ... YES
Quadrupole integrals                      ...  NO
Linear momentum integrals                 ...  NO
Angular momentum integrals                ...  NO
Higher moments length integrals           ...  NO
Higher moments velocity integrals         ...  NO
Kinetic energy integrals                  ...  NO
GIAO right hand sides                     ...  NO
GIAO dipole derivative integrals          ...  NO
SOC integrals                             ...  NO
EPR diamagnetic integrals (GIAO)          ...  NO
EPR gauge integrals                       ...  NO
Field gradient integrals                  ...  NO (   0 nuclei)
Spin-dipole/Fermi contact integrals       ...  NO (   0 nuclei)
Contact density integrals                 ...  NO (   0 nuclei)
Nucleus-orbit integrals                   ...  NO (   0 nuclei)
Geometric perturbations                   ...  NO (  37 nuclei)

Choice of electric origin   ... Center of mass
Position of electric origin ... (  0.0609,  0.0371,  0.0525) 
Choice of magnetic origin   ... GIAO
Position of magnetic origin ... (  0.0000,  0.0000,  0.0000) 

Calculating integrals                     ... Electric Dipole (Length)     done (  0.0 sec)

Property integrals calculated in   0.0 sec

Maximum memory used throughout the entire PROPINT-calculation: 26.9 MB


-------------------------------------------------------------------------------
                          DFT DISPERSION CORRECTION                            
                                                                               
                              DFTD3 V3.1  Rev 1                                
                          USING Becke-Johnson damping                          
-------------------------------------------------------------------------------
-------------------------   ----------------
Dispersion correction           -0.088080616
-------------------------   ----------------


-------------------------   --------------------
FINAL SINGLE POINT ENERGY     -1004.443383120158
-------------------------   --------------------

------------------------------------------------------------------------------
                         ORCA SCF GRADIENT CALCULATION
------------------------------------------------------------------------------

Nuc. rep. gradient        (SHARK) ... done (  0.0 sec)
HCore & Overlap gradient  (SHARK) ... done (  1.1 sec)
Split-RIJ-J gradient      (SHARK) ... done (  6.5 sec)
COSX-gradient                     ... done ( 95.7 sec)
XC gradient                       ... done ( 15.8 sec)
CPCM gradient                     ... done (  5.7 sec)
Dispersion correction             ... done (  0.1 sec)

-------------------
DISPERSION GRADIENT
-------------------

   1   N   :    0.000460561   -0.000208960   -0.000123757
   2   C   :   -0.002620061    0.001890482    0.000909508
   3   N   :    0.000017366   -0.000110869   -0.000021855
   4   C   :    0.001185288   -0.002296560   -0.000771254
   5   C   :    0.000207645    0.000309931    0.000023883
   6   C   :    0.000555845    0.000172944   -0.000085138
   7   C   :    0.000415976   -0.000119214   -0.000108107
   8   C   :   -0.000178514    0.000036807    0.000060845
   9   C   :   -0.000254403    0.000212960    0.000278873
  10   C   :   -0.000074097    0.000347368    0.000360246
  11   C   :   -0.000417086   -0.000156776   -0.000089738
  12   N   :   -0.000137278    0.000236608    0.000239951
  13   C   :    0.000377241    0.000106604    0.000049494
  14   C   :   -0.000426249    0.000151400    0.000197568
  15   C   :   -0.000364916   -0.000006843    0.000041539
  16   C   :   -0.000262658   -0.000205971   -0.000157957
  17   C   :   -0.000161585   -0.000348523   -0.000304221
  18   C   :    0.000335096    0.000143105    0.000090571
  19   N   :    0.000102885   -0.000224225   -0.000227384
  20   C   :   -0.000596647   -0.000079405   -0.000019063
  21   C   :   -0.000121177   -0.000114760   -0.000134970
  22   C   :    0.000132255   -0.000135442   -0.000019241
  23   C   :    0.001844255    0.000173696   -0.000244157
  24   N   :    0.000170194    0.000392435    0.000079991
  25   H   :    0.000206843   -0.000051948   -0.000059138
  26   H   :    0.000169750   -0.000147650   -0.000085454
  27   H   :    0.000127836    0.000293719    0.000049156
  28   H   :    0.000108894    0.000335856    0.000041359
  29   H   :   -0.000018978    0.000242777    0.000264776
  30   H   :   -0.000027583    0.000236272    0.000228186
  31   H   :   -0.000206952    0.000163637    0.000180105
  32   H   :   -0.000278210    0.000012497    0.000048154
  33   H   :   -0.000181725   -0.000169540   -0.000134613
  34   H   :    0.000001379   -0.000233526   -0.000218376
  35   H   :   -0.000040333   -0.000206118   -0.000225707
  36   H   :   -0.000030497   -0.000312985   -0.000041578
  37   H   :   -0.000020362   -0.000329783   -0.000072497

Difference to translation invariance:
           :   -0.0000000000    0.0000000000    0.0000000000

Difference to rotation invariance:
           :    0.0000000000   -0.0000000000    0.0000000000

Norm of the Dispersion gradient    ...    0.0051835342
RMS gradient                       ...    0.0004919993
MAX gradient                       ...    0.0026200614

------------------
CARTESIAN GRADIENT
------------------

   1   N   :    0.000126877   -0.000238233    0.000394707
   2   C   :   -0.000005515    0.000078387   -0.000098938
   3   N   :   -0.000068830    0.000128822    0.000057851
   4   C   :    0.000142582   -0.000101924   -0.000033065
   5   C   :   -0.000107477    0.000175020    0.000052290
   6   C   :    0.000017086   -0.000258186   -0.000060983
   7   C   :   -0.000351759    0.000061953   -0.000031654
   8   C   :    0.000375232    0.000036727    0.000083217
   9   C   :   -0.000090210   -0.000171648   -0.000161689
  10   C   :    0.000049871   -0.000009685   -0.000014725
  11   C   :    0.000059101    0.000012415    0.000016276
  12   N   :   -0.000070071    0.000229804    0.000211823
  13   C   :   -0.000213637   -0.000106319   -0.000071127
  14   C   :    0.000130048    0.000023435   -0.000001938
  15   C   :    0.000017911   -0.000035628   -0.000039147
  16   C   :   -0.000007443    0.000039981    0.000030880
  17   C   :    0.000077428    0.000045393    0.000032881
  18   C   :   -0.000157322   -0.000021442   -0.000013265
  19   N   :    0.000099835   -0.000233317   -0.000216420
  20   C   :    0.000201188    0.000044884    0.000009907
  21   C   :   -0.000084192    0.000146399    0.000103157
  22   C   :    0.000066006    0.000130196    0.000065386
  23   C   :   -0.000084109   -0.000006745    0.000019025
  24   N   :   -0.000069744   -0.000096603   -0.000070345
  25   H   :   -0.000042007    0.000053306   -0.000169002
  26   H   :    0.000010602    0.000064791   -0.000156720
  27   H   :   -0.000004322    0.000006927    0.000014485
  28   H   :    0.000116005    0.000098375    0.000016711
  29   H   :   -0.000041644    0.000041580    0.000077647
  30   H   :   -0.000061066   -0.000029157    0.000003273
  31   H   :    0.000057410    0.000018748    0.000013134
  32   H   :   -0.000014627   -0.000046327   -0.000042507
  33   H   :   -0.000049461    0.000026615    0.000018331
  34   H   :    0.000061478    0.000021785    0.000003390
  35   H   :   -0.000151563   -0.000068889   -0.000020993
  36   H   :    0.000063770   -0.000051580   -0.000044544
  37   H   :    0.000002570   -0.000009860    0.000022691

Difference to translation invariance:
           :    0.0000000001    0.0000000000    0.0000000000

Difference to rotation invariance:
           :    0.0005220707   -0.0005015580    0.0002186575

Norm of the Cartesian gradient     ...    0.0011770071
RMS gradient                       ...    0.0001117166
MAX gradient                       ...    0.0003947073

-------
TIMINGS
-------

Total SCF gradient time     ....      124.807 sec

Densities                   ....       0.005 sec  (  0.0%)
One electron gradient       ....       1.087 sec  (  0.9%)
RI-J Coulomb gradient       ....       6.519 sec  (  5.2%)
COSX gradient               ....      95.658 sec  ( 76.6%)
XC gradient                 ....      15.776 sec  ( 12.6%)
CPCM gradient               ....       5.694 sec  (  4.6%)
   A-Matrix (El+Nuc)        ....       0.591 sec  (  0.5%)
   Potential                ....       5.103 sec  (  4.1%)

Maximum memory used throughout the entire SCFGRAD-calculation: 59.4 MB
------------------------------------------------------------------------------
                         ORCA GEOMETRY RELAXATION STEP
------------------------------------------------------------------------------

Reading the OPT-File                    .... done
Getting information on internals        .... done
Copying old internal coords+grads       .... done
Making the new internal coordinates     .... (2022 redundants) done
Validating the new internal coordinates .... (2022 redundants) done
Calculating the B-matrix                .... done
Calculating the G,G- and P matrices     .... done
Transforming gradient to internals      .... done
Projecting the internal gradient        .... done
Number of atoms                         ....  37
Number of internal coordinates          .... 207
Current Energy                          .... -1004.443383120 Eh
Current gradient norm                   ....     0.001177007 Eh/bohr
Maximum allowed component of the step   ....  0.300
Current trust radius                    ....  0.700
Updating the Hessian (BFGS)             .... done
Forming the augmented Hessian           .... done
Diagonalizing the augmented Hessian     .... done
Last element of RFO vector              ....  0.999830365
Lowest eigenvalues of augmented Hessian:
 -0.000005827  0.007369152  0.009729514  0.020763569  0.021726590
Length of the computed step             ....  0.018421651
The final length of the internal step   ....  0.018421651
Converting the step to Cartesian space:
 Initial RMS(Int)=    0.0012803933
Transforming coordinates:
 Iter   0:  RMS(Cart)=    0.0029504350 RMS(Int)=    0.4366992689
done
Storing new coordinates                 .... done
The predicted energy change is          ....    -0.000002915
Previously predicted energy change      ....    -0.000004326
Actually observed energy change         ....    -0.000004656
Ratio of predicted to observed change   ....     1.076109736
New trust radius                        ....     0.700000000

                                .--------------------.
          ----------------------|Geometry convergence|-------------------------
          Item                value                   Tolerance       Converged
          ---------------------------------------------------------------------
          Energy change      -0.0000046557            0.0000050000      YES
          RMS gradient        0.0000612407            0.0001000000      YES
          MAX gradient        0.0002261934            0.0003000000      YES
          RMS step            0.0012803933            0.0020000000      YES
          MAX step            0.0115762941            0.0040000000      NO
          -------------------------------------------------------------------------
          ........................................................
          Max(Bonds)      0.0005      Max(Angles)    0.18
          Max(Dihed)        0.66      Max(Improp)    0.00
          ---------------------------------------------------------------------

The optimization has not yet converged - more geometry cycles are needed


    ---------------------------------------------------------------------------
                         Redundant Internal Coordinates
                            (Angstroem and degrees)

        Definition                    Value    dE/dq     Step     New-Value
    ----------------------------------------------------------------------------
     1. B(C   1,N   0)                1.3576  0.000129 -0.0005    1.3571   
     2. B(N   2,C   1)                1.3267  0.000109  0.0001    1.3268   
     3. B(C   3,N   2)                1.3823 -0.000064  0.0001    1.3823   
     4. B(C   4,C   3)                1.4018  0.000086 -0.0000    1.4018   
     5. B(C   5,C   4)                1.3963 -0.000065  0.0001    1.3964   
     6. B(C   6,C   5)                1.4177  0.000006 -0.0001    1.4176   
     7. B(C   7,C   6)                1.4804 -0.000181  0.0002    1.4806   
     8. B(C   8,C   7)                1.4428 -0.000025 -0.0001    1.4427   
     9. B(C   9,C   8)                1.3689 -0.000010  0.0000    1.3689   
    10. B(C  10,C   9)                1.4307 -0.000113  0.0002    1.4309   
    11. B(N  11,C  10)                1.3370  0.000096 -0.0001    1.3369   
    12. B(C  12,N  11)                1.3427  0.000152 -0.0001    1.3426   
    13. B(C  13,C  12)                1.4294 -0.000168  0.0002    1.4296   
    14. B(C  14,C  13)                1.3736  0.000046 -0.0001    1.3736   
    15. B(C  15,C  14)                1.4292 -0.000071  0.0001    1.4293   
    16. B(C  16,C  15)                1.3734  0.000037 -0.0001    1.3734   
    17. B(C  17,C  16)                1.4306 -0.000142  0.0002    1.4308   
    18. B(C  17,C  12)                1.4494  0.000074  0.0001    1.4495   
    19. B(N  18,C  17)                1.3410  0.000117 -0.0001    1.3409   
    20. B(C  19,N  18)                1.3419  0.000136 -0.0001    1.3418   
    21. B(C  19,C  10)                1.4495  0.000042  0.0002    1.4497   
    22. B(C  20,C  19)                1.4251 -0.000172  0.0003    1.4254   
    23. B(C  20,C   7)                1.3841  0.000051 -0.0001    1.3840   
    24. B(C  21,C   6)                1.4130  0.000033 -0.0001    1.4129   
    25. B(C  22,C  21)                1.3876 -0.000040  0.0000    1.3877   
    26. B(C  22,C   3)                1.4257  0.000010  0.0001    1.4258   
    27. B(N  23,C  22)                1.3867  0.000058  0.0000    1.3867   
    28. B(N  23,C   1)                1.3765  0.000090 -0.0000    1.3765   
    29. B(H  24,N   0)                1.0150  0.000034 -0.0001    1.0148   
    30. B(H  25,N   0)                1.0152  0.000025 -0.0002    1.0150   
    31. B(H  26,C   4)                1.0925  0.000005  0.0000    1.0925   
    32. B(H  27,C   5)                1.0916  0.000040 -0.0000    1.0916   
    33. B(H  28,C   8)                1.0913  0.000037 -0.0000    1.0913   
    34. B(H  29,C   9)                1.0922  0.000005 -0.0000    1.0922   
    35. B(H  30,C  13)                1.0922  0.000004 -0.0000    1.0922   
    36. B(H  31,C  14)                1.0928  0.000006  0.0000    1.0928   
    37. B(H  32,C  15)                1.0929  0.000006  0.0000    1.0929   
    38. B(H  33,C  16)                1.0922  0.000004 -0.0000    1.0922   
    39. B(H  34,C  20)                1.0911  0.000013 -0.0000    1.0911   
    40. B(H  35,C  21)                1.0911  0.000013  0.0000    1.0911   
    41. B(H  36,N  23)                1.0145  0.000006 -0.0000    1.0145   
    42. A(C   1,N   0,H  24)          115.72 -0.000107    0.18    115.90   
    43. A(H  24,N   0,H  25)          115.03 -0.000035    0.16    115.19   
    44. A(C   1,N   0,H  25)          118.09 -0.000031    0.16    118.25   
    45. A(N   2,C   1,N  23)          112.92 -0.000016    0.00    112.92   
    46. A(N   0,C   1,N  23)          121.77 -0.000003    0.01    121.78   
    47. A(N   0,C   1,N   2)          125.25  0.000019   -0.01    125.24   
    48. A(C   1,N   2,C   3)          105.09 -0.000003   -0.00    105.09   
    49. A(N   2,C   3,C  22)          110.32  0.000041   -0.00    110.32   
    50. A(C   4,C   3,C  22)          118.76 -0.000054   -0.00    118.76   
    51. A(N   2,C   3,C   4)          130.92  0.000012    0.01    130.92   
    52. A(C   3,C   4,C   5)          118.63 -0.000008    0.00    118.63   
    53. A(C   5,C   4,H  26)          120.82 -0.000006   -0.01    120.81   
    54. A(C   3,C   4,H  26)          120.55  0.000014    0.01    120.56   
    55. A(C   4,C   5,C   6)          122.43  0.000102   -0.01    122.41   
    56. A(C   4,C   5,H  27)          118.32 -0.000204    0.01    118.33   
    57. A(C   6,C   5,H  27)          119.23  0.000102    0.01    119.23   
    58. A(C   5,C   6,C   7)          120.63  0.000102   -0.03    120.60   
    59. A(C   5,C   6,C  21)          119.17 -0.000133    0.03    119.20   
    60. A(C   7,C   6,C  21)          120.20  0.000030    0.00    120.20   
    61. A(C   8,C   7,C  20)          118.12 -0.000161    0.03    118.15   
    62. A(C   6,C   7,C  20)          121.70  0.000005   -0.01    121.69   
    63. A(C   6,C   7,C   8)          120.18  0.000156   -0.02    120.16   
    64. A(C   7,C   8,H  28)          118.90  0.000051    0.02    118.93   
    65. A(C   9,C   8,H  28)          119.04 -0.000125   -0.02    119.03   
    66. A(C   7,C   8,C   9)          122.04  0.000074   -0.01    122.03   
    67. A(C  10,C   9,H  29)          117.85 -0.000080    0.04    117.89   
    68. A(C   8,C   9,H  29)          121.51  0.000053   -0.04    121.47   
    69. A(C   8,C   9,C  10)          120.64  0.000027   -0.00    120.64   
    70. A(N  11,C  10,C  19)          121.47  0.000094   -0.01    121.46   
    71. A(C   9,C  10,C  19)          118.19 -0.000062    0.00    118.19   
    72. A(C   9,C  10,N  11)          120.34 -0.000031    0.01    120.35   
    73. A(C  10,N  11,C  12)          117.67 -0.000149    0.01    117.68   
    74. A(N  11,C  12,C  13)          119.95 -0.000081    0.01    119.96   
    75. A(C  13,C  12,C  17)          119.05  0.000023   -0.01    119.04   
    76. A(N  11,C  12,C  17)          121.00  0.000058   -0.00    121.00   
    77. A(C  14,C  13,H  30)          121.94  0.000074   -0.03    121.90   
    78. A(C  12,C  13,C  14)          120.31 -0.000018    0.00    120.31   
    79. A(C  12,C  13,H  30)          117.75 -0.000056    0.03    117.78   
    80. A(C  13,C  14,C  15)          120.69  0.000001    0.00    120.69   
    81. A(C  13,C  14,H  31)          120.13  0.000063   -0.02    120.10   
    82. A(C  15,C  14,H  31)          119.18 -0.000064    0.02    119.21   
    83. A(C  16,C  15,H  32)          120.06  0.000060   -0.02    120.04   
    84. A(C  14,C  15,H  32)          119.15 -0.000065    0.02    119.17   
    85. A(C  14,C  15,C  16)          120.79  0.000006    0.00    120.79   
    86. A(C  15,C  16,H  33)          121.94  0.000074   -0.03    121.91   
    87. A(C  17,C  16,H  33)          117.73 -0.000058    0.03    117.76   
    88. A(C  15,C  16,C  17)          120.33 -0.000016    0.00    120.33   
    89. A(C  16,C  17,N  18)          119.93 -0.000081    0.01    119.95   
    90. A(C  12,C  17,N  18)          121.23  0.000077   -0.01    121.22   
    91. A(C  12,C  17,C  16)          118.84  0.000004   -0.00    118.83   
    92. A(C  17,N  18,C  19)          117.75 -0.000146    0.01    117.76   
    93. A(N  18,C  19,C  20)          119.86 -0.000081    0.01    119.87   
    94. A(C  10,C  19,C  20)          119.26  0.000015   -0.00    119.25   
    95. A(C  10,C  19,N  18)          120.88  0.000066   -0.00    120.88   
    96. A(C  19,C  20,H  34)          116.63 -0.000226    0.03    116.66   
    97. A(C   7,C  20,H  34)          121.60  0.000119   -0.02    121.58   
    98. A(C   7,C  20,C  19)          121.76  0.000108   -0.02    121.74   
    99. A(C   6,C  21,H  35)          121.18  0.000048    0.01    121.19   
   100. A(C   6,C  21,C  22)          118.07  0.000090   -0.02    118.05   
   101. A(C  22,C  21,H  35)          120.74 -0.000137    0.01    120.74   
   102. A(C  21,C  22,N  23)          132.56 -0.000017   -0.01    132.55   
   103. A(C   3,C  22,N  23)          104.49  0.000015    0.00    104.49   
   104. A(C   3,C  22,C  21)          122.95  0.000002    0.01    122.96   
   105. A(C   1,N  23,C  22)          107.17 -0.000038    0.00    107.17   
   106. A(C  22,N  23,H  36)          126.75  0.000018    0.00    126.76   
   107. A(C   1,N  23,H  36)          126.07  0.000020   -0.00    126.07   
   108. D(N   2,C   1,N   0,H  24)    -17.59 -0.000141    0.16    -17.43   
   109. D(N  23,C   1,N   0,H  25)     23.22  0.000129   -0.66     22.55   
   110. D(N  23,C   1,N   0,H  24)    165.35 -0.000140    0.11    165.46   
   111. D(N   2,C   1,N   0,H  25)   -159.72  0.000129   -0.62   -160.34   
   112. D(C   3,N   2,C   1,N   0)   -177.17  0.000000   -0.06   -177.23   
   113. D(C   3,N   2,C   1,N  23)      0.11 -0.000000   -0.01      0.10   
   114. D(C   4,C   3,N   2,C   1)    179.55  0.000002   -0.00    179.55   
   115. D(C  22,C   3,N   2,C   1)     -0.23  0.000001    0.01     -0.22   
   116. D(H  26,C   4,C   3,N   2)      0.69 -0.000004    0.02      0.71   
   117. D(H  26,C   4,C   3,C  22)   -179.55 -0.000004    0.01   -179.54   
   118. D(C   5,C   4,C   3,C  22)      0.25  0.000001   -0.00      0.25   
   119. D(C   5,C   4,C   3,N   2)   -179.51  0.000001    0.01   -179.50   
   120. D(H  27,C   5,C   4,C   3)   -178.78 -0.000008   -0.00   -178.78   
   121. D(C   6,C   5,C   4,C   3)     -0.47 -0.000002    0.00     -0.47   
   122. D(C   6,C   5,C   4,H  26)    179.32  0.000003   -0.01    179.32   
   123. D(H  27,C   5,C   4,H  26)      1.02 -0.000003   -0.02      1.00   
   124. D(C  21,C   6,C   5,H  27)    178.66  0.000005    0.00    178.67   
   125. D(C  21,C   6,C   5,C   4)      0.37  0.000004   -0.00      0.37   
   126. D(C   7,C   6,C   5,H  27)     -0.71 -0.000006    0.03     -0.68   
   127. D(C   7,C   6,C   5,C   4)   -179.00 -0.000007    0.03   -178.98   
   128. D(C  20,C   7,C   6,C  21)    -27.91 -0.000012   -0.09    -28.01   
   129. D(C   8,C   7,C   6,C  21)    151.86 -0.000003   -0.12    151.73   
   130. D(C  20,C   7,C   6,C   5)    151.46 -0.000002   -0.12    151.34   
   131. D(C   8,C   7,C   6,C   5)    -28.77  0.000007   -0.15    -28.93   
   132. D(H  28,C   8,C   7,C  20)    178.53 -0.000010    0.05    178.58   
   133. D(H  28,C   8,C   7,C   6)     -1.24 -0.000019    0.08     -1.17   
   134. D(C   9,C   8,C   7,C  20)      0.01 -0.000008    0.03      0.04   
   135. D(C   9,C   8,C   7,C   6)   -179.77 -0.000017    0.07   -179.71   
   136. D(H  29,C   9,C   8,C   7)    179.31  0.000000   -0.01    179.30   
   137. D(C  10,C   9,C   8,H  28)   -178.62  0.000000   -0.02   -178.64   
   138. D(C  10,C   9,C   8,C   7)     -0.10  0.000000   -0.01     -0.10   
   139. D(H  29,C   9,C   8,H  28)      0.79 -0.000000   -0.02      0.77   
   140. D(C  19,C  10,C   9,H  29)   -179.23  0.000007   -0.02   -179.25   
   141. D(C  19,C  10,C   9,C   8)      0.20  0.000008   -0.02      0.18   
   142. D(N  11,C  10,C   9,H  29)      0.71  0.000009   -0.02      0.69   
   143. D(N  11,C  10,C   9,C   8)   -179.86  0.000009   -0.02   -179.88   
   144. D(C  12,N  11,C  10,C  19)     -0.26  0.000003   -0.00     -0.26   
   145. D(C  12,N  11,C  10,C   9)    179.80  0.000001   -0.00    179.80   
   146. D(C  17,C  12,N  11,C  10)      0.04  0.000003   -0.01      0.03   
   147. D(C  13,C  12,N  11,C  10)   -179.92  0.000002   -0.01   -179.92   
   148. D(H  30,C  13,C  12,C  17)    179.98  0.000000    0.00    179.99   
   149. D(H  30,C  13,C  12,N  11)     -0.07  0.000001    0.00     -0.06   
   150. D(C  14,C  13,C  12,C  17)     -0.05  0.000001    0.00     -0.04   
   151. D(C  14,C  13,C  12,N  11)    179.91  0.000002    0.00    179.91   
   152. D(H  31,C  14,C  13,H  30)     -0.02  0.000000   -0.00     -0.02   
   153. D(H  31,C  14,C  13,C  12)   -179.99 -0.000001    0.00   -179.99   
   154. D(C  15,C  14,C  13,H  30)    179.98  0.000001   -0.00    179.98   
   155. D(C  15,C  14,C  13,C  12)      0.01  0.000000   -0.00      0.01   
   156. D(H  32,C  15,C  14,H  31)      0.02  0.000001   -0.01      0.01   
   157. D(H  32,C  15,C  14,C  13)   -179.98  0.000001   -0.01   -179.99   
   158. D(C  16,C  15,C  14,H  31)   -179.98  0.000001   -0.00   -179.99   
   159. D(C  16,C  15,C  14,C  13)      0.02 -0.000000   -0.00      0.01   
   160. D(H  33,C  16,C  15,H  32)     -0.00 -0.000000    0.00     -0.00   
   161. D(H  33,C  16,C  15,C  14)    180.00  0.000001   -0.00    180.00   
   162. D(C  17,C  16,C  15,H  32)    179.99 -0.000002    0.01    179.99   
   163. D(C  17,C  16,C  15,C  14)     -0.01 -0.000001    0.00     -0.01   
   164. D(C  12,C  17,C  16,H  33)    179.97  0.000001    0.00    179.97   
   165. D(C  12,C  17,C  16,C  15)     -0.02  0.000003   -0.00     -0.02   
   166. D(N  18,C  17,C  12,C  13)   -179.94 -0.000003    0.00   -179.93   
   167. D(N  18,C  17,C  12,N  11)      0.11 -0.000004    0.00      0.12   
   168. D(C  16,C  17,C  12,C  13)      0.05 -0.000002   -0.00      0.05   
   169. D(N  18,C  17,C  16,C  15)    179.97  0.000003   -0.01    179.96   
   170. D(C  16,C  17,C  12,N  11)   -179.90 -0.000003    0.00   -179.90   
   171. D(N  18,C  17,C  16,H  33)     -0.04  0.000001   -0.00     -0.04   
   172. D(C  19,N  18,C  17,C  16)    179.99 -0.000003    0.01    180.01   
   173. D(C  19,N  18,C  17,C  12)     -0.02 -0.000002    0.01     -0.01   
   174. D(C  20,C  19,N  18,C  17)   -179.68  0.000010   -0.03   -179.71   
   175. D(C  10,C  19,N  18,C  17)     -0.20  0.000008   -0.02     -0.22   
   176. D(C  20,C  19,C  10,N  11)    179.84 -0.000011    0.02    179.87   
   177. D(C  20,C  19,C  10,C   9)     -0.22 -0.000010    0.03     -0.19   
   178. D(N  18,C  19,C  10,N  11)      0.36 -0.000008    0.01      0.37   
   179. D(N  18,C  19,C  10,C   9)   -179.70 -0.000007    0.02   -179.69   
   180. D(H  34,C  20,C  19,N  18)      0.98 -0.000005    0.00      0.98   
   181. D(H  34,C  20,C  19,C  10)   -178.51 -0.000004   -0.01   -178.52   
   182. D(C   7,C  20,C  19,N  18)    179.62  0.000001    0.01    179.64   
   183. D(C   7,C  20,C  19,C  10)      0.13  0.000003    0.00      0.14   
   184. D(H  34,C  20,C   7,C   8)    178.55  0.000008   -0.02    178.53   
   185. D(H  34,C  20,C   7,C   6)     -1.67  0.000018   -0.05     -1.72   
   186. D(C  19,C  20,C   7,C   8)     -0.02  0.000006   -0.03     -0.06   
   187. D(C  19,C  20,C   7,C   6)    179.75  0.000016   -0.06    179.69   
   188. D(H  35,C  21,C   6,C   7)     -2.23  0.000015   -0.03     -2.26   
   189. D(H  35,C  21,C   6,C   5)    178.39  0.000003   -0.00    178.39   
   190. D(C  22,C  21,C   6,C   7)    179.33  0.000007   -0.03    179.30   
   191. D(C  22,C  21,C   6,C   5)     -0.05 -0.000005    0.00     -0.04   
   192. D(N  23,C  22,C  21,H  35)      0.89 -0.000007   -0.00      0.89   
   193. D(N  23,C  22,C  21,C   6)    179.34  0.000005   -0.01    179.33   
   194. D(C   3,C  22,C  21,H  35)   -178.61 -0.000006    0.00   -178.61   
   195. D(C   3,C  22,C  21,C   6)     -0.17  0.000005   -0.00     -0.17   
   196. D(N  23,C  22,C   3,C   4)   -179.56 -0.000003    0.01   -179.55   
   197. D(N  23,C  22,C   3,N   2)      0.25 -0.000002   -0.00      0.25   
   198. D(C  21,C  22,C   3,C   4)      0.07 -0.000003    0.00      0.07   
   199. D(C  21,C  22,C   3,N   2)    179.87 -0.000002   -0.01    179.87   
   200. D(H  36,N  23,C  22,C  21)     -0.59 -0.000011    0.12     -0.47   
   201. D(H  36,N  23,C  22,C   3)    178.98 -0.000011    0.12    179.10   
   202. D(C   1,N  23,C  22,C  21)   -179.74  0.000002    0.00   -179.74   
   203. D(C   1,N  23,C  22,C   3)     -0.17  0.000002   -0.00     -0.18   
   204. D(H  36,N  23,C   1,N   2)   -179.12  0.000011   -0.11   -179.23   
   205. D(H  36,N  23,C   1,N   0)     -1.73  0.000012   -0.07     -1.80   
   206. D(C  22,N  23,C   1,N   2)      0.04 -0.000001    0.01      0.05   
   207. D(C  22,N  23,C   1,N   0)    177.43 -0.000001    0.05    177.49   
    ----------------------------------------------------------------------------

Geometry step timings:
Preparation and reading OPT file:      0.009 s (39.130 %)
Internal coordinates            :      0.000 s ( 0.000 %)
B/P matrices and projection     :      0.004 s (17.391 %)
Hessian update/contruction      :      0.004 s (17.391 %)
Making the step                 :      0.003 s (13.043 %)
Converting the step to Cartesian:      0.000 s ( 0.000 %)
Storing new data                :      0.000 s ( 0.000 %)
Checking convergence            :      0.001 s ( 4.348 %)
Final printing                  :      0.002 s ( 8.696 %)
Total time                      :      0.023 s

Time for energy+gradient        :    290.535 s
Time for complete geometry iter :    290.658 s

         *************************************************************
         *                GEOMETRY OPTIMIZATION CYCLE  10            *
         *************************************************************
---------------------------------
CARTESIAN COORDINATES (ANGSTROEM)
---------------------------------
  N      7.081377   -1.697478   -1.205473
  C      5.982177   -0.965784   -0.892234
  N      5.985247    0.322119   -0.573396
  C      4.669415    0.621979   -0.274259
  C      4.071138    1.822054    0.134272
  C      2.696728    1.834484    0.380862
  C      1.886117    0.682215    0.223658
  C      0.428350    0.746370    0.474612
  C     -0.102481    1.692228    1.425922
  C     -1.442453    1.780193    1.691782
  C     -2.376019    0.925967    1.023774
  N     -3.683673    1.018427    1.286064
  C     -4.512166    0.193725    0.625674
  C     -5.920006    0.252222    0.867278
  C     -6.774348   -0.586793    0.194316
  C     -6.272919   -1.529776   -0.755624
  C     -4.927308   -1.617746   -1.015862
  C     -4.002617   -0.762688   -0.336968
  N     -2.690350   -0.855780   -0.596469
  C     -1.862545   -0.032819    0.065256
  C     -0.459568   -0.089113   -0.180321
  C      2.483460   -0.529505   -0.189958
  C      3.850804   -0.535455   -0.426671
  N      4.729868   -1.532715   -0.821237
  H      7.909485   -1.167619   -1.457187
  H      6.951493   -2.564610   -1.716806
  H      4.669267    2.728538    0.253189
  H      2.232416    2.776312    0.679172
  H      0.588395    2.341038    1.966832
  H     -1.833297    2.492060    2.422073
  H     -6.281550    0.980228    1.596865
  H     -7.849907   -0.539032    0.381507
  H     -6.974969   -2.185234   -1.277063
  H     -4.524392   -2.331453   -1.737831
  H     -0.121849   -0.808774   -0.927702
  H      1.895048   -1.442165   -0.296217
  H      4.501632   -2.502719   -1.011729

----------------------------
CARTESIAN COORDINATES (A.U.)
----------------------------
  NO LB      ZA    FRAG     MASS         X           Y           Z
   0 N     7.0000    0    14.007   13.381863   -3.207769   -2.278013
   1 C     6.0000    0    12.011   11.304676   -1.825066   -1.686078
   2 N     7.0000    0    14.007   11.310477    0.608716   -1.083561
   3 C     6.0000    0    12.011    8.823916    1.175369   -0.518275
   4 C     6.0000    0    12.011    7.693335    3.443184    0.253737
   5 C     6.0000    0    12.011    5.096078    3.466672    0.719725
   6 C     6.0000    0    12.011    3.564245    1.289200    0.422652
   7 C     6.0000    0    12.011    0.809464    1.410434    0.896887
   8 C     6.0000    0    12.011   -0.193661    3.197847    2.694602
   9 C     6.0000    0    12.011   -2.725842    3.364076    3.197004
  10 C     6.0000    0    12.011   -4.490025    1.749824    1.934652
  11 N     7.0000    0    14.007   -6.961133    1.924549    2.430309
  12 C     6.0000    0    12.011   -8.526758    0.366087    1.182352
  13 C     6.0000    0    12.011  -11.187190    0.476630    1.638917
  14 C     6.0000    0    12.011  -12.801663   -1.108878    0.367204
  15 C     6.0000    0    12.011  -11.854100   -2.890858   -1.427922
  16 C     6.0000    0    12.011   -9.311262   -3.057097   -1.919701
  17 C     6.0000    0    12.011   -7.563850   -1.441271   -0.636777
  18 N     7.0000    0    14.007   -5.084024   -1.617190   -1.127164
  19 C     6.0000    0    12.011   -3.519700   -0.062018    0.123316
  20 C     6.0000    0    12.011   -0.868457   -0.168399   -0.340758
  21 C     6.0000    0    12.011    4.693059   -1.000619   -0.358968
  22 C     6.0000    0    12.011    7.276965   -1.011864   -0.806292
  23 N     7.0000    0    14.007    8.938155   -2.896412   -1.551913
  24 H     1.0000    0     1.008   14.946761   -2.206480   -2.753685
  25 H     1.0000    0     1.008   13.136418   -4.846410   -3.244293
  26 H     1.0000    0     1.008    8.823636    5.156190    0.478458
  27 H     1.0000    0     1.008    4.218655    5.246469    1.283450
  28 H     1.0000    0     1.008    1.111905    4.423920    3.716774
  29 H     1.0000    0     1.008   -3.464429    4.709312    4.577056
  30 H     1.0000    0     1.008  -11.870409    1.852363    3.017637
  31 H     1.0000    0     1.008  -14.834173   -1.018623    0.720943
  32 H     1.0000    0     1.008  -13.180781   -4.129494   -2.413298
  33 H     1.0000    0     1.008   -8.549862   -4.405808   -3.284026
  34 H     1.0000    0     1.008   -0.230262   -1.528361   -1.753102
  35 H     1.0000    0     1.008    3.581121   -2.725298   -0.559769
  36 H     1.0000    0     1.008    8.506853   -4.729454   -1.911890

--------------------------------
INTERNAL COORDINATES (ANGSTROEM)
--------------------------------
 N      0   0   0     0.000000000000     0.00000000     0.00000000
 C      1   0   0     1.357105833384     0.00000000     0.00000000
 N      2   1   0     1.326785435205   125.23630926     0.00000000
 C      3   2   1     1.382320643288   105.09193622   182.77149560
 C      4   3   2     1.401790242941   130.92296627   179.54704358
 C      5   4   3     1.396410445046   118.63025747   180.50024010
 C      6   5   4     1.417577510370   122.41181844   359.52918039
 C      7   6   5     1.480600598519   120.59678019   181.02452532
 C      8   7   6     1.442712802036   120.16129674   331.07132446
 C      9   8   7     1.368921172654   122.02896618   180.29318150
 C     10   9   8     1.430901713296   120.63765149   359.89599214
 N     11  10   9     1.336901054092   120.34990099   180.12016301
 C     12  11  10     1.342628274654   117.68350515   179.80151541
 C     13  12  11     1.429618295694   119.96095996   180.07967820
 C     14  13  12     1.373580656713   120.31244566   179.90743630
 C     15  14  13     1.429347175788   120.68971652     0.00000000
 C     16  15  14     1.373365729659   120.79133435     0.00000000
 C     17  16  15     1.430760340485   120.33397614     0.00000000
 N     18  17  16     1.340914672473   119.94499280   179.95954431
 C     19  18  17     1.341792205482   117.75804334   180.00521060
 C      8   7   6     1.383967762472   121.68925585   151.33532075
 C      7   6   5     1.412856027020   119.19786073     0.37173068
 C     22   7   6     1.387695380673   118.04766034   359.95519177
 N      2   1   3     1.376492202804   121.78481977   182.89299580
 H      1   2   3     1.014827083992   115.89226569   342.56787264
 H      1   2   3     1.015011518649   118.24474821   199.65823057
 H      5   4   3     1.092526253194   120.55611649     0.71382788
 H      6   5   4     1.091611391528   118.33208656   181.21864173
 H      9   8   7     1.091259323939   118.92700917   358.83372950
 H     10   9   8     1.092172502238   121.46886120   179.30435103
 H     14  13  12     1.092247433329   117.78308294   359.93559613
 H     15  14  13     1.092770390956   120.10347105   180.01176035
 H     16  15  14     1.092885003837   119.17066983   180.01267191
 H     17  16  15     1.092226457806   121.90744326   179.99573683
 H     21   8   7     1.091120153576   121.58327100   358.27560823
 H     22   7   6     1.091086333637   121.19098096   178.39023004
 H     24   2   1     1.014537226318   126.06996416   358.20270981

---------------------------
INTERNAL COORDINATES (A.U.)
---------------------------
 N      0   0   0     0.000000000000     0.00000000     0.00000000
 C      1   0   0     2.564558359843     0.00000000     0.00000000
 N      2   1   0     2.507261111013   125.23630926     0.00000000
 C      3   2   1     2.612207445079   105.09193622   182.77149560
 C      4   3   2     2.648999656362   130.92296627   179.54704358
 C      5   4   3     2.638833311684   118.63025747   180.50024010
 C      6   5   4     2.678833268205   122.41181844   359.52918039
 C      7   6   5     2.797929644922   120.59678019   181.02452532
 C      8   7   6     2.726332085750   120.16129674   331.07132446
 C      9   8   7     2.586886115243   122.02896618   180.29318150
 C     10   9   8     2.704012362688   120.63765149   359.89599214
 N     11  10   9     2.526376860385   120.34990099   180.12016301
 C     12  11  10     2.537199738756   117.68350515   179.80151541
 C     13  12  11     2.701587054905   119.96095996   180.07967820
 C     14  13  12     2.595691264039   120.31244566   179.90743630
 C     15  14  13     2.701074712532   120.68971652     0.00000000
 C     16  15  14     2.595285110769   120.79133435     0.00000000
 C     17  16  15     2.703745206793   120.33397614     0.00000000
 N     18  17  16     2.533961499930   119.94499280   179.95954431
 C     19  18  17     2.535619796991   117.75804334   180.00521060
 C      8   7   6     2.615320049249   121.68925585   151.33532075
 C      7   6   5     2.669910957727   119.19786073     0.37173068
 C     22   7   6     2.622364226780   118.04766034   359.95519177
 N      2   1   3     2.601193288777   121.78481977   182.89299580
 H      1   2   3     1.917745262031   115.89226569   342.56787264
 H      1   2   3     1.918093793023   118.24474821   199.65823057
 H      5   4   3     2.064575412657   120.55611649     0.71382788
 H      6   5   4     2.062846574657   118.33208656   181.21864173
 H      9   8   7     2.062181263333   118.92700917   358.83372950
 H     10   9   8     2.063906920230   121.46886120   179.30435103
 H     14  13  12     2.064048519469   117.78308294   359.93559613
 H     15  14  13     2.065036766165   120.10347105   180.01176035
 H     16  15  14     2.065253353122   119.17066983   180.01267191
 H     17  16  15     2.064008881477   121.90744326   179.99573683
 H     21   8   7     2.061918269460   121.58327100   358.27560823
 H     22   7   6     2.061854359039   121.19098096   178.39023004
 H     24   2   1     1.917197510409   126.06996416   358.20270981

------------------------------------------------------------------------------
                   ___                                                        
                  /   \      - P O W E R E D   B Y -                         
                 /     \                                                     
                 |  |  |   _    _      __       _____    __    __             
                 |  |  |  | |  | |    /  \     |  _  \  |  |  /  |          
                  \  \/   | |  | |   /    \    | | | |  |  | /  /          
                 / \  \   | |__| |  /  /\  \   | |_| |  |  |/  /          
                |  |  |   |  __  | /  /__\  \  |    /   |      \           
                |  |  |   | |  | | |   __   |  |    \   |  |\   \          
                \     /   | |  | | |  |  |  |  | |\  \  |  | \   \       
                 \___/    |_|  |_| |__|  |__|  |_| \__\ |__|  \__/        
                                                                              
                      - O R C A' S   B I G   F R I E N D -                    
                                      &                                       
                       - I N T E G R A L  F E E D E R -                       
                                                                              
 v1 FN, 2020, v2 2021, v3 2022-2024                                           
------------------------------------------------------------------------------


----------------------
SHARK INTEGRAL PACKAGE
----------------------

Number of atoms                             ...     37
Number of basis functions                   ...    401
Number of shells                            ...    183
Maximum angular momentum                    ...      2
Integral batch strategy                     ... SHARK/LIBINT Hybrid
RI-J (if used) integral strategy            ... SPLIT-RIJ (Revised 2003 algorithm where possible)
Printlevel                                  ...      1
Contraction scheme used                     ... SEGMENTED contraction
Prescreening option                         ... SCHWARTZ
   Thresh                                   ... 2.500e-11
   Tcut                                     ... 2.500e-12
   Tpresel                                  ... 2.500e-12 
Coulomb Range Separation                    ... NOT USED
Exchange Range Separation                   ... NOT USED
Multipole approximations                    ... NOT USED
Finite Nucleus Model                        ... NOT USED
CABS basis                                  ... NOT available
Auxiliary Coulomb fitting basis             ... AVAILABLE
   # of basis functions in Aux-J            ...   1319
   # of shells in Aux-J                     ...    425
   Maximum angular momentum in Aux-J        ...      4
Auxiliary J/K fitting basis                 ... NOT available
Auxiliary Correlation fitting basis         ... NOT available
Auxiliary 'external' fitting basis          ... NOT available

Checking pre-screening integrals            ... done (  0.0 sec) Dimension = 183
   => SHARK Basis and OBASIS are compatible. Storing Pre-screening
Shell pair information
Shell pair cut-off parameter TPreSel        ...   2.5e-12
Total number of shell pairs                 ...     16836
Shell pairs after pre-screening             ...     10509
Total number of primitive shell pairs       ...     62832
Primitive shell pairs kept                  ...     25454
          la=0 lb=0:   3067 shell pairs
          la=1 lb=0:   3839 shell pairs
          la=1 lb=1:   1261 shell pairs
          la=2 lb=0:   1323 shell pairs
          la=2 lb=1:    862 shell pairs
          la=2 lb=2:    157 shell pairs

Checking whether 4 symmetric matrices of dimension 401 fit in memory
:Max Core in MB      =   2000.00
 MB in use           =     15.17
 MB left             =   1984.83
 MB needed           =      2.46
 Data fit in memory  = YES
Calculating RI/J V-Matrix + Cholesky decomp.... done (  0.1 sec)
Calculating Nuclear repulsion               ... done (  0.0 sec) ENN=   1739.267475226210 Eh

Diagonalization of the overlap matrix:
Smallest eigenvalue                        ... 2.164e-04
Time for diagonalization                   ...    0.014 sec
Threshold for overlap eigenvalues          ... 1.000e-07
Number of eigenvalues below threshold      ... 0
Time for construction of square roots      ...    0.009 sec
Total time needed                          ...    0.023 sec

-------------------
DFT GRID GENERATION
-------------------

General Integration Accuracy     IntAcc      ... 4.388
Radial Grid Type                 RadialGrid  ... OptM3 with GC (2021)
Angular Grid (max. ang.)         AngularGrid ... 4 (Lebedev-302)
Angular grid pruning method      GridPruning ... 4 (adaptive)
Weight generation scheme         WeightScheme... mBecke (2022)
Basis function cutoff            BFCut       ... 1.0000e-11
Integration weight cutoff        WCut        ... 1.0000e-14
Partially contracted basis set               ... off
Rotationally invariant grid construction     ... off
Angular grids for H and He will be reduced by one unit

Total number of grid points                  ...   185213
Total number of batches                      ...     2913
Average number of points per batch           ...       63
Average number of grid points per atom       ...     5006

--------------------
COSX GRID GENERATION
--------------------

GRIDX 1
-------
General Integration Accuracy     IntAcc      ... 3.816
Radial Grid Type                 RadialGrid  ... OptM3 with GC (2021)
Angular Grid (max. ang.)         AngularGrid ... 1 (Lebedev-50)
Angular grid pruning method      GridPruning ... 4 (adaptive)
Weight generation scheme         WeightScheme... mBecke (2022)
Basis function cutoff            BFCut       ... 1.0000e-11
Integration weight cutoff        WCut        ... 1.0000e-14
Partially contracted basis set               ... on
Rotationally invariant grid construction     ... off
Angular grids for H and He will be reduced by one unit

Total number of grid points                  ...    23522
Total number of batches                      ...      201
Average number of points per batch           ...      117
Average number of grid points per atom       ...      636
UseSFitting                                  ... on

GRIDX 2
-------
General Integration Accuracy     IntAcc      ... 4.020
Radial Grid Type                 RadialGrid  ... OptM3 with GC (2021)
Angular Grid (max. ang.)         AngularGrid ... 2 (Lebedev-110)
Angular grid pruning method      GridPruning ... 4 (adaptive)
Weight generation scheme         WeightScheme... mBecke (2022)
Basis function cutoff            BFCut       ... 1.0000e-11
Integration weight cutoff        WCut        ... 1.0000e-14
Partially contracted basis set               ... on
Rotationally invariant grid construction     ... off
Angular grids for H and He will be reduced by one unit

Total number of grid points                  ...    52154
Total number of batches                      ...      426
Average number of points per batch           ...      122
Average number of grid points per atom       ...     1410
UseSFitting                                  ... on

GRIDX 3
-------
General Integration Accuracy     IntAcc      ... 4.338
Radial Grid Type                 RadialGrid  ... OptM3 with GC (2021)
Angular Grid (max. ang.)         AngularGrid ... 3 (Lebedev-194)
Angular grid pruning method      GridPruning ... 4 (adaptive)
Weight generation scheme         WeightScheme... mBecke (2022)
Basis function cutoff            BFCut       ... 1.0000e-11
Integration weight cutoff        WCut        ... 1.0000e-14
Partially contracted basis set               ... on
Rotationally invariant grid construction     ... off
Angular grids for H and He will be reduced by one unit

Total number of grid points                  ...   114462
Total number of batches                      ...      914
Average number of points per batch           ...      125
Average number of grid points per atom       ...     3094
UseSFitting                                  ... on
Grids setup in   4.7 sec
Initializing property integral containers    ... done (  0.0 sec)

SHARK setup successfully completed in   5.0 seconds

Maximum memory used throughout the entire STARTUP-calculation: 77.0 MB
Occupation numbers will be reassigned to an Aufbau configuration
             **** ENERGY FILE WAS UPDATED (C:\Users\jabreumiranda\Radioprotection_Pipeline_Project\06_Quantum_DFT_ORCA\CHEMBL1683055_neutral_opt.en.tmp) ****
Finished Guess after   0.2 sec
Maximum memory used throughout the entire GUESS-calculation: 28.5 MB
--------------------
CPCM SOLVATION MODEL
--------------------
CPCM parameters:
  Epsilon                                         ...      80.1510
  Refrac                                          ...       1.3328
  Rsolv                                           ...       1.3000
  Surface type                                    ... GAUSSIAN VDW
  Discretization scheme                           ... Constant charge density
    Threshold for H atoms                         ...       5.0000 (charges/Ang^2)
    Threshold for non-H atoms                     ...       5.0000 (charges/Ang^2)
  Epsilon function type                           ...         CPCM
Solvent:                                          ... WATER
Radii:
  Scheme                                          ... Element-dependent radii
  Radius for N  used is    3.5149 Bohr (=   1.8600 Ang.)
  Radius for C  used is    3.8550 Bohr (=   2.0400 Ang.)
  Radius for H  used is    2.4944 Bohr (=   1.3200 Ang.)
Calculating surface                               ...        done! (  0.0s)
Cavity surface points                             ...         3369
Cavity Volume                                     ...    2402.5412
Cavity Surface-area                               ...    1210.0877
Calculating surface distance matrix               ...        done! (  0.1s)
Performing Cholesky decomposition & store         ...        done! (  0.4s)
Overall time for CPCM initialization              ...                 0.5s

----------------------------------------D-I-I-S--------------------------------------------
Iteration    Energy (Eh)           Delta-E    RMSDP     MaxDP     DIISErr   Damp  Time(sec)
-------------------------------------------------------------------------------------------
               ***  Starting incremental Fock matrix formation  ***
                              *** Initializing SOSCF ***
---------------------------------------S-O-S-C-F--------------------------------------
Iteration    Energy (Eh)           Delta-E    RMSDP     MaxDP     MaxGrad    Time(sec)
--------------------------------------------------------------------------------------
    1    -1004.3552510759836878     0.00e+00  3.67e-05  3.18e-03  9.34e-05    25.7
               *** Restarting incremental Fock matrix formation ***
    2    -1004.3552741467378837    -2.31e-05  1.42e-05  9.79e-04  1.19e-04    25.4
    3    -1004.3552766431794225    -2.50e-06  4.99e-06  2.31e-04  3.35e-05    15.3
    4    -1004.3552765509398341     9.22e-08  2.68e-06  1.45e-04  6.28e-05    13.4
    5    -1004.3552767492037674    -1.98e-07  5.37e-07  2.60e-05  4.13e-06    12.6
    6    -1004.3552767569390198    -7.74e-09  2.97e-07  1.47e-05  5.28e-06    10.0
                 **** Energy Check signals convergence ****

               *****************************************************
               *                     SUCCESS                       *
               *           SCF CONVERGED AFTER   6 CYCLES          *
               *****************************************************

Recomputing exchange energy using gridx3       ... done (   40.526 sec)
Old exchange energy                            :    -27.199496460 Eh
New exchange energy                            :    -27.199528401 Eh
Exchange energy change after final integration :     -0.000031941 Eh
Total energy after final integration           :  -1004.355308695 Eh
             **** ENERGY FILE WAS UPDATED (C:\Users\jabreumiranda\Radioprotection_Pipeline_Project\06_Quantum_DFT_ORCA\CHEMBL1683055_neutral_opt.en.tmp) ****

----------------
TOTAL SCF ENERGY
----------------

Total Energy       :      -1004.35530869468369 Eh          -27329.89737 eV

Components:
Nuclear Repulsion  :       1739.26747522620963 Eh           47327.87410 eV
Electronic Energy  :      -2743.58712400252170 Eh          -74656.80112 eV
One Electron Energy:      -4815.67271364269527 Eh         -131041.11654 eV
Two Electron Energy:       2072.08558964017357 Eh           56384.31542 eV
CPCM Dielectric    :         -0.03562797757010 Eh              -0.96949 eV

Virial components:
Potential Energy   :      -1998.53533370824698 Eh          -54382.91120 eV
Kinetic Energy     :        994.18002501356318 Eh           27053.01383 eV
Virial Ratio       :          2.01023485025359

DFT components:
N(Alpha)           :       80.999986058622 electrons
N(Beta)            :       80.999986058622 electrons
N(Total)           :      161.999972117244 electrons
E(X)               :     -108.112702093321 Eh       
E(C)               :       -6.529782793558 Eh       
E(XC)              :     -114.642484886879 Eh       

CPCM Solvation Model Properties:
Surface-charge          :         -0.02717762700104
Corrected charge        :         -0.00000000000000
Outlying charge corr.   :          0.00003722769035 Eh               0.00101 eV
Free-energy (cav+disp)  :  This term is not implemented in the current solvation scheme

---------------
SCF CONVERGENCE
---------------

  Last Energy change         ...    7.7353e-09  Tolerance :   1.0000e-08
  Last MAX-Density change    ...    1.4651e-05  Tolerance :   1.0000e-07
  Last RMS-Density change    ...    2.9710e-07  Tolerance :   5.0000e-09
  Last DIIS Error            ...    1.9165e-03  Tolerance :   5.0000e-07
  Last Orbital Gradient      ...    5.2849e-06  Tolerance :   1.0000e-05
  Last Orbital Rotation      ...    8.2253e-06  Tolerance :   1.0000e-05


Total SCF time: 0 days 0 hours 2 min 32 sec 
Finished LeanSCF after 152.8 sec

Maximum memory used throughout the entire LEANSCF-calculation: 110.4 MB

------------------------------------------------------------------------------
                         ORCA PROPERTY INTEGRAL CALCULATIONS
------------------------------------------------------------------------------

GBWName                                   ... C:\Users\jabreumiranda\Radioprotection_Pipeline_Project\06_Quantum_DFT_ORCA\CHEMBL1683055_neutral_opt.gbw
Number of atoms                           ...     37
Number of basis functions                 ...    401
Max core memory                           ...   2000 MB

Dipole integrals                          ... YES
Quadrupole integrals                      ...  NO
Linear momentum integrals                 ...  NO
Angular momentum integrals                ...  NO
Higher moments length integrals           ...  NO
Higher moments velocity integrals         ...  NO
Kinetic energy integrals                  ...  NO
GIAO right hand sides                     ...  NO
GIAO dipole derivative integrals          ...  NO
SOC integrals                             ...  NO
EPR diamagnetic integrals (GIAO)          ...  NO
EPR gauge integrals                       ...  NO
Field gradient integrals                  ...  NO (   0 nuclei)
Spin-dipole/Fermi contact integrals       ...  NO (   0 nuclei)
Contact density integrals                 ...  NO (   0 nuclei)
Nucleus-orbit integrals                   ...  NO (   0 nuclei)
Geometric perturbations                   ...  NO (  37 nuclei)

Choice of electric origin   ... Center of mass
Position of electric origin ... (  0.0608,  0.0374,  0.0520) 
Choice of magnetic origin   ... GIAO
Position of magnetic origin ... (  0.0000,  0.0000,  0.0000) 

Calculating integrals                     ... Electric Dipole (Length)     done (  0.0 sec)

Property integrals calculated in   0.1 sec

Maximum memory used throughout the entire PROPINT-calculation: 26.9 MB


-------------------------------------------------------------------------------
                          DFT DISPERSION CORRECTION                            
                                                                               
                              DFTD3 V3.1  Rev 1                                
                          USING Becke-Johnson damping                          
-------------------------------------------------------------------------------
-------------------------   ----------------
Dispersion correction           -0.088078870
-------------------------   ----------------


-------------------------   --------------------
FINAL SINGLE POINT ENERGY     -1004.443387564964
-------------------------   --------------------

------------------------------------------------------------------------------
                         ORCA SCF GRADIENT CALCULATION
------------------------------------------------------------------------------

Nuc. rep. gradient        (SHARK) ... done (  0.0 sec)
HCore & Overlap gradient  (SHARK) ... done (  1.2 sec)
Split-RIJ-J gradient      (SHARK) ... done (  6.6 sec)
COSX-gradient                     ... done ( 98.4 sec)
XC gradient                       ... done ( 16.1 sec)
CPCM gradient                     ... done (  5.7 sec)
Dispersion correction             ... done (  0.1 sec)

-------------------
DISPERSION GRADIENT
-------------------

   1   N   :    0.000460634   -0.000208873   -0.000123679
   2   C   :   -0.002619652    0.001889883    0.000907922
   3   N   :    0.000017665   -0.000110793   -0.000021992
   4   C   :    0.001185527   -0.002295525   -0.000768887
   5   C   :    0.000207431    0.000310100    0.000023618
   6   C   :    0.000555534    0.000173476   -0.000085210
   7   C   :    0.000416691   -0.000119577   -0.000108342
   8   C   :   -0.000178435    0.000037043    0.000060732
   9   C   :   -0.000253834    0.000213408    0.000279576
  10   C   :   -0.000073711    0.000347419    0.000361004
  11   C   :   -0.000417456   -0.000156275   -0.000089308
  12   N   :   -0.000137210    0.000236258    0.000240348
  13   C   :    0.000377136    0.000106960    0.000049615
  14   C   :   -0.000426535    0.000151124    0.000198323
  15   C   :   -0.000365386   -0.000007040    0.000041879
  16   C   :   -0.000263014   -0.000206107   -0.000158287
  17   C   :   -0.000161848   -0.000348469   -0.000304987
  18   C   :    0.000335484    0.000142907    0.000090298
  19   N   :    0.000102649   -0.000223900   -0.000228052
  20   C   :   -0.000596375   -0.000079699   -0.000019309
  21   C   :   -0.000120736   -0.000115019   -0.000136232
  22   C   :    0.000131977   -0.000136351   -0.000019128
  23   C   :    0.001842797    0.000174304   -0.000244064
  24   N   :    0.000170153    0.000392108    0.000079288
  25   H   :    0.000207197   -0.000052052   -0.000059183
  26   H   :    0.000169857   -0.000148092   -0.000084800
  27   H   :    0.000127758    0.000293814    0.000048874
  28   H   :    0.000108820    0.000336008    0.000041049
  29   H   :   -0.000018991    0.000242628    0.000265072
  30   H   :   -0.000027431    0.000236054    0.000228512
  31   H   :   -0.000206960    0.000163262    0.000180494
  32   H   :   -0.000278145    0.000012410    0.000048474
  33   H   :   -0.000181670   -0.000169453   -0.000134768
  34   H   :    0.000001202   -0.000233212   -0.000218759
  35   H   :   -0.000040449   -0.000205732   -0.000226360
  36   H   :   -0.000030372   -0.000313260   -0.000041187
  37   H   :   -0.000020302   -0.000329739   -0.000072543

Difference to translation invariance:
           :    0.0000000000   -0.0000000000   -0.0000000000

Difference to rotation invariance:
           :   -0.0000000000   -0.0000000000   -0.0000000000

Norm of the Dispersion gradient    ...    0.0051819538
RMS gradient                       ...    0.0004918493
MAX gradient                       ...    0.0026196524

------------------
CARTESIAN GRADIENT
------------------

   1   N   :    0.000055362   -0.000067643    0.000287561
   2   C   :   -0.000058897    0.000022017   -0.000069624
   3   N   :    0.000010290    0.000067100    0.000052753
   4   C   :    0.000126798   -0.000013216   -0.000014561
   5   C   :   -0.000040464    0.000138090    0.000045303
   6   C   :   -0.000145800   -0.000197790   -0.000041623
   7   C   :   -0.000068460   -0.000068046   -0.000036393
   8   C   :    0.000093708    0.000074147    0.000056440
   9   C   :    0.000063690   -0.000169472   -0.000142865
  10   C   :    0.000039582    0.000036771    0.000035007
  11   C   :   -0.000085151    0.000034090    0.000051095
  12   N   :   -0.000049365    0.000143984    0.000138368
  13   C   :   -0.000070082   -0.000000018    0.000010336
  14   C   :    0.000009340    0.000013139    0.000006428
  15   C   :    0.000009503    0.000022614    0.000018555
  16   C   :    0.000034720   -0.000007984   -0.000020475
  17   C   :   -0.000000423   -0.000008541   -0.000011099
  18   C   :   -0.000001207   -0.000030802   -0.000034627
  19   N   :    0.000081544   -0.000147254   -0.000151916
  20   C   :    0.000024232   -0.000064377   -0.000056484
  21   C   :    0.000159432    0.000124336    0.000046259
  22   C   :   -0.000078987    0.000141567    0.000085852
  23   C   :   -0.000075097   -0.000017007    0.000009803
  24   N   :   -0.000046616   -0.000082046   -0.000062242
  25   H   :   -0.000016171   -0.000006571   -0.000157325
  26   H   :    0.000047120    0.000023401   -0.000086098
  27   H   :   -0.000020680    0.000020216    0.000011276
  28   H   :    0.000123279    0.000087980    0.000019392
  29   H   :   -0.000086096    0.000066936    0.000077772
  30   H   :    0.000021173   -0.000000454    0.000018006
  31   H   :   -0.000000022    0.000000539    0.000001515
  32   H   :   -0.000009666   -0.000010269   -0.000011623
  33   H   :   -0.000015905    0.000003433   -0.000003457
  34   H   :    0.000004146    0.000000358   -0.000007529
  35   H   :   -0.000112012   -0.000051194   -0.000022819
  36   H   :    0.000071293   -0.000066061   -0.000044541
  37   H   :    0.000005890   -0.000011971    0.000003578

Difference to translation invariance:
           :    0.0000000001    0.0000000000    0.0000000000

Difference to rotation invariance:
           :    0.0005030517   -0.0005085002    0.0002357725

Norm of the Cartesian gradient     ...    0.0007861076
RMS gradient                       ...    0.0000746140
MAX gradient                       ...    0.0002875612

-------
TIMINGS
-------

Total SCF gradient time     ....      128.063 sec

Densities                   ....       0.006 sec  (  0.0%)
One electron gradient       ....       1.159 sec  (  0.9%)
RI-J Coulomb gradient       ....       6.601 sec  (  5.2%)
COSX gradient               ....      98.427 sec  ( 76.9%)
XC gradient                 ....      16.061 sec  ( 12.5%)
CPCM gradient               ....       5.735 sec  (  4.5%)
   A-Matrix (El+Nuc)        ....       0.588 sec  (  0.5%)
   Potential                ....       5.147 sec  (  4.0%)

Maximum memory used throughout the entire SCFGRAD-calculation: 59.4 MB
------------------------------------------------------------------------------
                         ORCA GEOMETRY RELAXATION STEP
------------------------------------------------------------------------------

Reading the OPT-File                    .... done
Getting information on internals        .... done
Copying old internal coords+grads       .... done
Making the new internal coordinates     .... (2022 redundants) done
Validating the new internal coordinates .... (2022 redundants) done
Calculating the B-matrix                .... done
Calculating the G,G- and P matrices     .... done
Transforming gradient to internals      .... done
Projecting the internal gradient        .... done
Number of atoms                         ....  37
Number of internal coordinates          .... 207
Current Energy                          .... -1004.443387565 Eh
Current gradient norm                   ....     0.000786108 Eh/bohr
Maximum allowed component of the step   ....  0.300
Current trust radius                    ....  0.700
Updating the Hessian (BFGS)             .... done
Forming the augmented Hessian           .... done
Diagonalizing the augmented Hessian     .... done
Last element of RFO vector              ....  0.999934014
Lowest eigenvalues of augmented Hessian:
 -0.000002759  0.007022248  0.009131264  0.020771706  0.021730876
Length of the computed step             ....  0.011488439
The final length of the internal step   ....  0.011488439
Converting the step to Cartesian space:
 Initial RMS(Int)=    0.0007985017
Transforming coordinates:
 Iter   0:  RMS(Cart)=    0.0014680157 RMS(Int)=    0.0007986192
done
Storing new coordinates                 .... done
The predicted energy change is          ....    -0.000001380
Previously predicted energy change      ....    -0.000002915
Actually observed energy change         ....    -0.000004445
Ratio of predicted to observed change   ....     1.525017520
New trust radius                        ....     0.466666667

                                .--------------------.
          ----------------------|Geometry convergence|-------------------------
          Item                value                   Tolerance       Converged
          ---------------------------------------------------------------------
          Energy change      -0.0000044448            0.0000050000      YES
          RMS gradient        0.0000444121            0.0001000000      YES
          MAX gradient        0.0001871897            0.0003000000      YES
          RMS step            0.0007985017            0.0020000000      YES
          MAX step            0.0064849494            0.0040000000      NO
          -------------------------------------------------------------------------
          ........................................................
          Max(Bonds)      0.0003      Max(Angles)    0.13
          Max(Dihed)        0.37      Max(Improp)    0.00
          ---------------------------------------------------------------------

The optimization has not yet converged - more geometry cycles are needed


    ---------------------------------------------------------------------------
                         Redundant Internal Coordinates
                            (Angstroem and degrees)

        Definition                    Value    dE/dq     Step     New-Value
    ----------------------------------------------------------------------------
     1. B(C   1,N   0)                1.3571  0.000090 -0.0003    1.3568   
     2. B(N   2,C   1)                1.3268  0.000083 -0.0000    1.3268   
     3. B(C   3,N   2)                1.3823 -0.000012  0.0000    1.3824   
     4. B(C   4,C   3)                1.4018  0.000083 -0.0001    1.4017   
     5. B(C   5,C   4)                1.3964 -0.000016  0.0001    1.3965   
     6. B(C   6,C   5)                1.4176 -0.000031 -0.0000    1.4176   
     7. B(C   7,C   6)                1.4806 -0.000107  0.0002    1.4808   
     8. B(C   8,C   7)                1.4427 -0.000051  0.0000    1.4427   
     9. B(C   9,C   8)                1.3689 -0.000004  0.0000    1.3689   
    10. B(C  10,C   9)                1.4309  0.000030  0.0001    1.4310   
    11. B(N  11,C  10)                1.3369  0.000050 -0.0001    1.3368   
    12. B(C  12,N  11)                1.3426  0.000091 -0.0001    1.3425   
    13. B(C  13,C  12)                1.4296 -0.000018  0.0001    1.4297   
    14. B(C  14,C  13)                1.3736 -0.000003 -0.0000    1.3736   
    15. B(C  15,C  14)                1.4293  0.000025  0.0000    1.4294   
    16. B(C  16,C  15)                1.3734 -0.000007 -0.0000    1.3733   
    17. B(C  17,C  16)                1.4308 -0.000002  0.0001    1.4308   
    18. B(C  17,C  12)                1.4495  0.000163 -0.0001    1.4494   
    19. B(N  18,C  17)                1.3409  0.000069 -0.0001    1.3408   
    20. B(C  19,N  18)                1.3418  0.000069 -0.0001    1.3417   
    21. B(C  19,C  10)                1.4497  0.000155 -0.0000    1.4497   
    22. B(C  20,C  19)                1.4254  0.000014  0.0001    1.4255   
    23. B(C  20,C   7)                1.3840 -0.000024 -0.0000    1.3839   
    24. B(C  21,C   6)                1.4129 -0.000045 -0.0000    1.4129   
    25. B(C  22,C  21)                1.3877 -0.000002  0.0000    1.3877   
    26. B(C  22,C   3)                1.4258  0.000071  0.0000    1.4258   
    27. B(N  23,C  22)                1.3867  0.000059 -0.0000    1.3867   
    28. B(N  23,C   1)                1.3765  0.000058 -0.0000    1.3765   
    29. B(H  24,N   0)                1.0148  0.000020 -0.0001    1.0147   
    30. B(H  25,N   0)                1.0150  0.000019 -0.0001    1.0149   
    31. B(H  26,C   4)                1.0925  0.000006  0.0000    1.0925   
    32. B(H  27,C   5)                1.0916  0.000028 -0.0000    1.0916   
    33. B(H  28,C   8)                1.0913  0.000024 -0.0000    1.0912   
    34. B(H  29,C   9)                1.0922  0.000004 -0.0000    1.0922   
    35. B(H  30,C  13)                1.0922  0.000003 -0.0000    1.0922   
    36. B(H  31,C  14)                1.0928  0.000008 -0.0000    1.0928   
    37. B(H  32,C  15)                1.0929  0.000008 -0.0000    1.0929   
    38. B(H  33,C  16)                1.0922  0.000004 -0.0000    1.0922   
    39. B(H  34,C  20)                1.0911  0.000015 -0.0000    1.0911   
    40. B(H  35,C  21)                1.0911  0.000021 -0.0000    1.0911   
    41. B(H  36,N  23)                1.0145  0.000011 -0.0000    1.0145   
    42. A(C   1,N   0,H  24)          115.89 -0.000024    0.12    116.01   
    43. A(H  24,N   0,H  25)          115.18 -0.000080    0.13    115.31   
    44. A(C   1,N   0,H  25)          118.24  0.000017    0.10    118.34   
    45. A(N   2,C   1,N  23)          112.92  0.000016   -0.00    112.92   
    46. A(N   0,C   1,N  23)          121.78  0.000014    0.00    121.79   
    47. A(N   0,C   1,N   2)          125.24 -0.000030   -0.00    125.24   
    48. A(C   1,N   2,C   3)          105.09 -0.000007    0.00    105.09   
    49. A(N   2,C   3,C  22)          110.32  0.000011   -0.00    110.32   
    50. A(C   4,C   3,C  22)          118.76 -0.000056    0.01    118.76   
    51. A(N   2,C   3,C   4)          130.92  0.000046   -0.00    130.92   
    52. A(C   3,C   4,C   5)          118.63 -0.000021    0.00    118.63   
    53. A(C   5,C   4,H  26)          120.81 -0.000019   -0.00    120.81   
    54. A(C   3,C   4,H  26)          120.56  0.000040   -0.00    120.55   
    55. A(C   4,C   5,C   6)          122.41  0.000065   -0.02    122.40   
    56. A(C   4,C   5,H  27)          118.33 -0.000187    0.04    118.37   
    57. A(C   6,C   5,H  27)          119.23  0.000122   -0.02    119.21   
    58. A(C   5,C   6,C   7)          120.60 -0.000019   -0.01    120.58   
    59. A(C   5,C   6,C  21)          119.20 -0.000030    0.02    119.22   
    60. A(C   7,C   6,C  21)          120.20  0.000049   -0.01    120.19   
    61. A(C   8,C   7,C  20)          118.15 -0.000044    0.02    118.17   
    62. A(C   6,C   7,C  20)          121.69 -0.000032   -0.00    121.69   
    63. A(C   6,C   7,C   8)          120.16  0.000076   -0.02    120.14   
    64. A(C   7,C   8,H  28)          118.93  0.000105   -0.01    118.92   
    65. A(C   9,C   8,H  28)          119.03 -0.000164    0.02    119.05   
    66. A(C   7,C   8,C   9)          122.03  0.000059   -0.01    122.02   
    67. A(C  10,C   9,H  29)          117.89  0.000015    0.02    117.91   
    68. A(C   8,C   9,H  29)          121.47 -0.000035   -0.01    121.45   
    69. A(C   8,C   9,C  10)          120.64  0.000021   -0.00    120.63   
    70. A(N  11,C  10,C  19)          121.46  0.000063   -0.01    121.45   
    71. A(C   9,C  10,C  19)          118.19 -0.000075    0.01    118.20   
    72. A(C   9,C  10,N  11)          120.35  0.000012    0.00    120.35   
    73. A(C  10,N  11,C  12)          117.68 -0.000119    0.02    117.71   
    74. A(N  11,C  12,C  13)          119.96 -0.000048    0.01    119.97   
    75. A(C  13,C  12,C  17)          119.04 -0.000006   -0.00    119.04   
    76. A(N  11,C  12,C  17)          121.00  0.000054   -0.01    120.99   
    77. A(C  14,C  13,H  30)          121.90  0.000006   -0.02    121.89   
    78. A(C  12,C  13,C  14)          120.31 -0.000008    0.00    120.32   
    79. A(C  12,C  13,H  30)          117.78  0.000002    0.01    117.80   
    80. A(C  13,C  14,C  15)          120.69  0.000018   -0.00    120.69   
    81. A(C  13,C  14,H  31)          120.10  0.000005   -0.01    120.09   
    82. A(C  15,C  14,H  31)          119.21 -0.000023    0.02    119.22   
    83. A(C  16,C  15,H  32)          120.04  0.000005   -0.01    120.02   
    84. A(C  14,C  15,H  32)          119.17 -0.000024    0.02    119.19   
    85. A(C  14,C  15,C  16)          120.79  0.000019   -0.00    120.79   
    86. A(C  15,C  16,H  33)          121.91  0.000005   -0.02    121.89   
    87. A(C  17,C  16,H  33)          117.76  0.000001    0.02    117.77   
    88. A(C  15,C  16,C  17)          120.33 -0.000007    0.00    120.34   
    89. A(C  16,C  17,N  18)          119.94 -0.000043    0.01    119.96   
    90. A(C  12,C  17,N  18)          121.22  0.000059   -0.01    121.21   
    91. A(C  12,C  17,C  16)          118.83 -0.000016    0.00    118.83   
    92. A(C  17,N  18,C  19)          117.76 -0.000121    0.02    117.78   
    93. A(N  18,C  19,C  20)          119.87 -0.000050    0.01    119.88   
    94. A(C  10,C  19,C  20)          119.25 -0.000013   -0.00    119.25   
    95. A(C  10,C  19,N  18)          120.88  0.000063   -0.01    120.87   
    96. A(C  19,C  20,H  34)          116.66 -0.000155    0.05    116.71   
    97. A(C   7,C  20,H  34)          121.58  0.000103   -0.03    121.55   
    98. A(C   7,C  20,C  19)          121.74  0.000052   -0.02    121.72   
    99. A(C   6,C  21,H  35)          121.19  0.000093   -0.01    121.18   
   100. A(C   6,C  21,C  22)          118.05  0.000027   -0.01    118.03   
   101. A(C  22,C  21,H  35)          120.74 -0.000120    0.02    120.77   
   102. A(C  21,C  22,N  23)          132.55 -0.000027    0.00    132.55   
   103. A(C   3,C  22,N  23)          104.49  0.000012   -0.00    104.49   
   104. A(C   3,C  22,C  21)          122.96  0.000015   -0.00    122.96   
   105. A(C   1,N  23,C  22)          107.17 -0.000032    0.00    107.17   
   106. A(C  22,N  23,H  36)          126.76  0.000022   -0.00    126.75   
   107. A(C   1,N  23,H  36)          126.07  0.000010   -0.00    126.07   
   108. D(N   2,C   1,N   0,H  24)    -17.43 -0.000115    0.23    -17.21   
   109. D(N  23,C   1,N   0,H  25)     22.55  0.000053   -0.37     22.18   
   110. D(N  23,C   1,N   0,H  24)    165.46 -0.000111    0.19    165.65   
   111. D(N   2,C   1,N   0,H  25)   -160.34  0.000049   -0.34   -160.68   
   112. D(C   3,N   2,C   1,N   0)   -177.23  0.000005   -0.04   -177.27   
   113. D(C   3,N   2,C   1,N  23)      0.10  0.000001   -0.01      0.09   
   114. D(C   4,C   3,N   2,C   1)    179.55  0.000000   -0.00    179.54   
   115. D(C  22,C   3,N   2,C   1)     -0.22 -0.000000    0.01     -0.21   
   116. D(H  26,C   4,C   3,N   2)      0.71  0.000000    0.01      0.72   
   117. D(H  26,C   4,C   3,C  22)   -179.54  0.000000   -0.00   -179.54   
   118. D(C   5,C   4,C   3,C  22)      0.25  0.000001   -0.01      0.24   
   119. D(C   5,C   4,C   3,N   2)   -179.50  0.000001    0.00   -179.50   
   120. D(H  27,C   5,C   4,C   3)   -178.78 -0.000008    0.01   -178.77   
   121. D(C   6,C   5,C   4,C   3)     -0.47 -0.000002    0.00     -0.47   
   122. D(C   6,C   5,C   4,H  26)    179.32 -0.000001   -0.00    179.31   
   123. D(H  27,C   5,C   4,H  26)      1.00 -0.000007    0.01      1.01   
   124. D(C  21,C   6,C   5,H  27)    178.67  0.000004   -0.01    178.66   
   125. D(C  21,C   6,C   5,C   4)      0.37  0.000002   -0.00      0.37   
   126. D(C   7,C   6,C   5,H  27)     -0.68  0.000002    0.00     -0.68   
   127. D(C   7,C   6,C   5,C   4)   -178.98  0.000000    0.01   -178.97   
   128. D(C  20,C   7,C   6,C  21)    -28.01 -0.000012   -0.01    -28.02   
   129. D(C   8,C   7,C   6,C  21)    151.73 -0.000012   -0.02    151.71   
   130. D(C  20,C   7,C   6,C   5)    151.34 -0.000011   -0.02    151.31   
   131. D(C   8,C   7,C   6,C   5)    -28.93 -0.000011   -0.03    -28.96   
   132. D(H  28,C   8,C   7,C  20)    178.58 -0.000001    0.02    178.60   
   133. D(H  28,C   8,C   7,C   6)     -1.17 -0.000001    0.03     -1.13   
   134. D(C   9,C   8,C   7,C  20)      0.04 -0.000001    0.02      0.06   
   135. D(C   9,C   8,C   7,C   6)   -179.71 -0.000001    0.03   -179.68   
   136. D(H  29,C   9,C   8,C   7)    179.30 -0.000001    0.00    179.30   
   137. D(C  10,C   9,C   8,H  28)   -178.64 -0.000005   -0.00   -178.65   
   138. D(C  10,C   9,C   8,C   7)     -0.10 -0.000001   -0.00     -0.10   
   139. D(H  29,C   9,C   8,H  28)      0.77 -0.000005   -0.00      0.76   
   140. D(C  19,C  10,C   9,H  29)   -179.25  0.000004   -0.02   -179.27   
   141. D(C  19,C  10,C   9,C   8)      0.18  0.000003   -0.02      0.16   
   142. D(N  11,C  10,C   9,H  29)      0.69  0.000005   -0.02      0.67   
   143. D(N  11,C  10,C   9,C   8)   -179.88  0.000005   -0.02   -179.90   
   144. D(C  12,N  11,C  10,C  19)     -0.26  0.000003   -0.01     -0.27   
   145. D(C  12,N  11,C  10,C   9)    179.80  0.000001   -0.00    179.80   
   146. D(C  17,C  12,N  11,C  10)      0.03  0.000002   -0.01      0.02   
   147. D(C  13,C  12,N  11,C  10)   -179.92  0.000001   -0.01   -179.93   
   148. D(H  30,C  13,C  12,C  17)    179.99  0.000002   -0.00    179.98   
   149. D(H  30,C  13,C  12,N  11)     -0.06  0.000002   -0.00     -0.07   
   150. D(C  14,C  13,C  12,C  17)     -0.04  0.000002   -0.00     -0.05   
   151. D(C  14,C  13,C  12,N  11)    179.91  0.000003   -0.01    179.90   
   152. D(H  31,C  14,C  13,H  30)     -0.02  0.000000   -0.00     -0.02   
   153. D(H  31,C  14,C  13,C  12)   -179.99 -0.000001    0.00   -179.99   
   154. D(C  15,C  14,C  13,H  30)    179.98  0.000000   -0.00    179.98   
   155. D(C  15,C  14,C  13,C  12)      0.01 -0.000000    0.00      0.01   
   156. D(H  32,C  15,C  14,H  31)      0.01 -0.000000   -0.00      0.01   
   157. D(H  32,C  15,C  14,C  13)   -179.99 -0.000001   -0.00   -179.99   
   158. D(C  16,C  15,C  14,H  31)   -179.99 -0.000001   -0.00   -179.99   
   159. D(C  16,C  15,C  14,C  13)      0.01 -0.000001    0.00      0.02   
   160. D(H  33,C  16,C  15,H  32)     -0.00  0.000000    0.00     -0.00   
   161. D(H  33,C  16,C  15,C  14)    180.00  0.000000   -0.00    179.99   
   162. D(C  17,C  16,C  15,H  32)    179.99 -0.000000    0.00    180.00   
   163. D(C  17,C  16,C  15,C  14)     -0.01 -0.000000    0.00     -0.01   
   164. D(C  12,C  17,C  16,H  33)    179.97  0.000002   -0.00    179.97   
   165. D(C  12,C  17,C  16,C  15)     -0.02  0.000002   -0.01     -0.03   
   166. D(N  18,C  17,C  12,C  13)   -179.93 -0.000003    0.01   -179.92   
   167. D(N  18,C  17,C  12,N  11)      0.12 -0.000004    0.01      0.13   
   168. D(C  16,C  17,C  12,C  13)      0.05 -0.000003    0.01      0.06   
   169. D(N  18,C  17,C  16,C  15)    179.96  0.000002   -0.01    179.95   
   170. D(C  16,C  17,C  12,N  11)   -179.90 -0.000003    0.01   -179.89   
   171. D(N  18,C  17,C  16,H  33)     -0.04  0.000002   -0.01     -0.05   
   172. D(C  19,N  18,C  17,C  16)   -179.99  0.000001    0.00   -179.99   
   173. D(C  19,N  18,C  17,C  12)     -0.01  0.000001    0.00     -0.01   
   174. D(C  20,C  19,N  18,C  17)   -179.71  0.000004   -0.02   -179.73   
   175. D(C  10,C  19,N  18,C  17)     -0.22  0.000003   -0.01     -0.23   
   176. D(C  20,C  19,C  10,N  11)    179.87 -0.000006    0.02    179.89   
   177. D(C  20,C  19,C  10,C   9)     -0.19 -0.000004    0.02     -0.17   
   178. D(N  18,C  19,C  10,N  11)      0.37 -0.000005    0.02      0.39   
   179. D(N  18,C  19,C  10,C   9)   -179.69 -0.000003    0.02   -179.67   
   180. D(H  34,C  20,C  19,N  18)      0.98 -0.000005    0.01      0.99   
   181. D(H  34,C  20,C  19,C  10)   -178.52 -0.000004    0.00   -178.52   
   182. D(C   7,C  20,C  19,N  18)    179.64  0.000003    0.00    179.64   
   183. D(C   7,C  20,C  19,C  10)      0.14  0.000003   -0.01      0.13   
   184. D(H  34,C  20,C   7,C   8)    178.53  0.000004   -0.02    178.51   
   185. D(H  34,C  20,C   7,C   6)     -1.72  0.000005   -0.03     -1.76   
   186. D(C  19,C  20,C   7,C   8)     -0.06 -0.000001   -0.02     -0.07   
   187. D(C  19,C  20,C   7,C   6)    179.69 -0.000000   -0.03    179.66   
   188. D(H  35,C  21,C   6,C   7)     -2.26  0.000005   -0.02     -2.28   
   189. D(H  35,C  21,C   6,C   5)    178.39  0.000004   -0.02    178.38   
   190. D(C  22,C  21,C   6,C   7)    179.31 -0.000001   -0.01    179.30   
   191. D(C  22,C  21,C   6,C   5)     -0.04 -0.000002    0.00     -0.04   
   192. D(N  23,C  22,C  21,H  35)      0.89 -0.000007    0.01      0.90   
   193. D(N  23,C  22,C  21,C   6)    179.33  0.000002   -0.01    179.32   
   194. D(C   3,C  22,C  21,H  35)   -178.61 -0.000007    0.01   -178.60   
   195. D(C   3,C  22,C  21,C   6)     -0.17  0.000002   -0.00     -0.17   
   196. D(N  23,C  22,C   3,C   4)   -179.55 -0.000001    0.01   -179.54   
   197. D(N  23,C  22,C   3,N   2)      0.25 -0.000001   -0.00      0.24   
   198. D(C  21,C  22,C   3,C   4)      0.07 -0.000001    0.00      0.08   
   199. D(C  21,C  22,C   3,N   2)    179.87 -0.000001   -0.00    179.86   
   200. D(H  36,N  23,C  22,C  21)     -0.47 -0.000006    0.08     -0.39   
   201. D(H  36,N  23,C  22,C   3)    179.10 -0.000006    0.08    179.18   
   202. D(C   1,N  23,C  22,C  21)   -179.74  0.000002   -0.00   -179.75   
   203. D(C   1,N  23,C  22,C   3)     -0.18  0.000002   -0.01     -0.18   
   204. D(H  36,N  23,C   1,N   2)   -179.23  0.000005   -0.07   -179.30   
   205. D(H  36,N  23,C   1,N   0)     -1.80  0.000000   -0.04     -1.84   
   206. D(C  22,N  23,C   1,N   2)      0.05 -0.000002    0.01      0.06   
   207. D(C  22,N  23,C   1,N   0)    177.49 -0.000007    0.04    177.53   
    ----------------------------------------------------------------------------

Geometry step timings:
Preparation and reading OPT file:      0.042 s (77.778 %)
Internal coordinates            :      0.000 s ( 0.000 %)
B/P matrices and projection     :      0.004 s ( 7.407 %)
Hessian update/contruction      :      0.002 s ( 3.704 %)
Making the step                 :      0.003 s ( 5.556 %)
Converting the step to Cartesian:      0.000 s ( 0.000 %)
Storing new data                :      0.000 s ( 0.000 %)
Checking convergence            :      0.000 s ( 0.000 %)
Final printing                  :      0.003 s ( 5.556 %)
Total time                      :      0.054 s

Time for energy+gradient        :    286.792 s
Time for complete geometry iter :    286.946 s

         *************************************************************
         *                GEOMETRY OPTIMIZATION CYCLE  11            *
         *************************************************************
---------------------------------
CARTESIAN COORDINATES (ANGSTROEM)
---------------------------------
  N      7.081119   -1.696869   -1.206009
  C      5.982218   -0.965595   -0.892226
  N      5.985217    0.322296   -0.573372
  C      4.669289    0.622148   -0.274448
  C      4.071073    1.822179    0.134008
  C      2.696582    1.834756    0.380486
  C      1.886209    0.682346    0.223183
  C      0.428153    0.746593    0.473854
  C     -0.102308    1.692288    1.425568
  C     -1.442250    1.780053    1.691715
  C     -2.375806    0.925824    1.023590
  N     -3.683342    1.017663    1.286362
  C     -4.512099    0.193350    0.626079
  C     -5.919942    0.251316    0.868484
  C     -6.774459   -0.587374    0.195398
  C     -6.273317   -1.529578   -0.755532
  C     -4.927838   -1.617033   -1.016519
  C     -4.002899   -0.762261   -0.337420
  N     -2.690777   -0.854810   -0.597372
  C     -1.862648   -0.032394    0.064407
  C     -0.459611   -0.088649   -0.181519
  C      2.483388   -0.529488   -0.190336
  C      3.850779   -0.535356   -0.426894
  N      4.729958   -1.532549   -0.821232
  H      7.910927   -1.168567   -1.454941
  H      6.952388   -2.566781   -1.712671
  H      4.669267    2.728625    0.252906
  H      2.231691    2.776310    0.678606
  H      0.588893    2.340875    1.966254
  H     -1.832759    2.491800    2.422299
  H     -6.281558    0.978630    1.598724
  H     -7.849878   -0.539762    0.383392
  H     -6.975264   -2.184944   -1.277209
  H     -4.525435   -2.330237   -1.739267
  H     -0.121283   -0.807591   -0.929284
  H      1.894710   -1.441989   -0.296263
  H      4.501613   -2.502325   -1.012700

----------------------------
CARTESIAN COORDINATES (A.U.)
----------------------------
  NO LB      ZA    FRAG     MASS         X           Y           Z
   0 N     7.0000    0    14.007   13.381376   -3.206618   -2.279026
   1 C     6.0000    0    12.011   11.304754   -1.824709   -1.686063
   2 N     7.0000    0    14.007   11.310421    0.609051   -1.083516
   3 C     6.0000    0    12.011    8.823677    1.175689   -0.518631
   4 C     6.0000    0    12.011    7.693213    3.443419    0.253239
   5 C     6.0000    0    12.011    5.095801    3.467187    0.719015
   6 C     6.0000    0    12.011    3.564419    1.289447    0.421755
   7 C     6.0000    0    12.011    0.809092    1.410857    0.895454
   8 C     6.0000    0    12.011   -0.193335    3.197961    2.693932
   9 C     6.0000    0    12.011   -2.725457    3.363813    3.196879
  10 C     6.0000    0    12.011   -4.489623    1.749553    1.934305
  11 N     7.0000    0    14.007   -6.960508    1.923105    2.430872
  12 C     6.0000    0    12.011   -8.526631    0.365379    1.183118
  13 C     6.0000    0    12.011  -11.187069    0.474919    1.641198
  14 C     6.0000    0    12.011  -12.801873   -1.109977    0.369249
  15 C     6.0000    0    12.011  -11.854852   -2.890483   -1.427749
  16 C     6.0000    0    12.011   -9.312264   -3.055749   -1.920942
  17 C     6.0000    0    12.011   -7.564382   -1.440464   -0.637632
  18 N     7.0000    0    14.007   -5.084831   -1.615357   -1.128870
  19 C     6.0000    0    12.011   -3.519895   -0.061217    0.121711
  20 C     6.0000    0    12.011   -0.868539   -0.167522   -0.343022
  21 C     6.0000    0    12.011    4.692922   -1.000587   -0.359683
  22 C     6.0000    0    12.011    7.276918   -1.011676   -0.806714
  23 N     7.0000    0    14.007    8.938325   -2.896098   -1.551904
  24 H     1.0000    0     1.008   14.949485   -2.208272   -2.749440
  25 H     1.0000    0     1.008   13.138110   -4.850513   -3.236480
  26 H     1.0000    0     1.008    8.823635    5.156353    0.477922
  27 H     1.0000    0     1.008    4.217286    5.246465    1.282380
  28 H     1.0000    0     1.008    1.112847    4.423613    3.715682
  29 H     1.0000    0     1.008   -3.463413    4.708819    4.577481
  30 H     1.0000    0     1.008  -11.870424    1.849344    3.021151
  31 H     1.0000    0     1.008  -14.834120   -1.020002    0.724505
  32 H     1.0000    0     1.008  -13.181339   -4.128946   -2.413576
  33 H     1.0000    0     1.008   -8.551832   -4.403509   -3.286738
  34 H     1.0000    0     1.008   -0.229191   -1.526126   -1.756093
  35 H     1.0000    0     1.008    3.580483   -2.724965   -0.559856
  36 H     1.0000    0     1.008    8.506815   -4.728709   -1.913726

--------------------------------
INTERNAL COORDINATES (ANGSTROEM)
--------------------------------
 N      0   0   0     0.000000000000     0.00000000     0.00000000
 C      1   0   0     1.356762749964     0.00000000     0.00000000
 N      2   1   0     1.326777486227   125.23538048     0.00000000
 C      3   2   1     1.382365171356   105.09206232   182.72828248
 C      4   3   2     1.401703594992   130.91833228   179.54474581
 C      5   4   3     1.396472708454   118.63333189   180.50415815
 C      6   5   4     1.417567595816   122.39535481   359.53350018
 C      7   6   5     1.480841573515   120.58485957   181.03202569
 C      8   7   6     1.442736223739   120.14055147   331.03780965
 C      9   8   7     1.368933948269   122.01663835   180.32285478
 C     10   9   8     1.430953106985   120.63291372   359.89514833
 N     11  10   9     1.336837114474   120.35224674   180.09823708
 C     12  11  10     1.342498484636   117.70604832   179.79708836
 C     13  12  11     1.429735293435   119.97284633   180.07350228
 C     14  13  12     1.373552679905   120.31526491   179.90174013
 C     15  14  13     1.429391135703   120.68878115     0.00000000
 C     16  15  14     1.373345211038   120.78953997     0.00000000
 C     17  16  15     1.430846986521   120.33637068     0.00000000
 N     18  17  16     1.340822325420   119.95643431   179.95062104
 C     19  18  17     1.341683827855   117.78021443   180.00802862
 C      8   7   6     1.383932073011   121.68593475   151.31301273
 C      7   6   5     1.412855813314   119.21790796     0.36937733
 C     22   7   6     1.387715140752   118.03455130   359.95645322
 N      2   1   3     1.376456874410   121.78860407   182.85714290
 H      1   2   3     1.014717034393   116.00622548   342.79586157
 H      1   2   3     1.014901863845   118.34034857   199.32138951
 H      5   4   3     1.092527076807   120.55363189     0.72258936
 H      6   5   4     1.091568196246   118.36986976   181.22954771
 H      9   8   7     1.091222686441   118.91807907   358.86571918
 H     10   9   8     1.092168978555   121.45406200   179.30479263
 H     14  13  12     1.092246579346   117.79800163   359.93212886
 H     15  14  13     1.092764379473   120.08869867   180.01336216
 H     16  15  14     1.092877618276   119.18665504   180.01210683
 H     17  16  15     1.092223745003   121.88960216   179.99424686
 H     21   8   7     1.091098700457   121.55447214   358.24280701
 H     22   7   6     1.091064007594   121.17873469   178.37518684
 H     24   2   1     1.014527899378   126.06890354   358.16431564

---------------------------
INTERNAL COORDINATES (A.U.)
---------------------------
 N      0   0   0     0.000000000000     0.00000000     0.00000000
 C      1   0   0     2.563910026138     0.00000000     0.00000000
 N      2   1   0     2.507246089622   125.23538048     0.00000000
 C      3   2   1     2.612291590933   105.09206232   182.72828248
 C      4   3   2     2.648835915467   130.91833228   179.54474581
 C      5   4   3     2.638950972473   118.63333189   180.50415815
 C      6   5   4     2.678814532413   122.39535481   359.53350018
 C      7   6   5     2.798385021668   120.58485957   181.03202569
 C      8   7   6     2.726376346355   120.14055147   331.03780965
 C      9   8   7     2.586910257657   122.01663835   180.32285478
 C     10   9   8     2.704109482686   120.63291372   359.89514833
 N     11  10   9     2.526256032018   120.35224674   180.09823708
 C     12  11  10     2.536954471166   117.70604832   179.79708836
 C     13  12  11     2.701808148594   119.97284633   180.07350228
 C     14  13  12     2.595638395534   120.31526491   179.90174013
 C     15  14  13     2.701157784734   120.68878115     0.00000000
 C     16  15  14     2.595246336195   120.78953997     0.00000000
 C     17  16  15     2.703908944070   120.33637068     0.00000000
 N     18  17  16     2.533786989291   119.95643431   179.95062104
 C     19  18  17     2.535414992958   117.78021443   180.00802862
 C      8   7   6     2.615252605941   121.68593475   151.31301273
 C      7   6   5     2.669910553881   119.21790796     0.36937733
 C     22   7   6     2.622401567917   118.03455130   359.95645322
 N      2   1   3     2.601126527787   121.78860407   182.85714290
 H      1   2   3     1.917537298427   116.00622548   342.79586157
 H      1   2   3     1.917886575472   118.34034857   199.32138951
 H      5   4   3     2.064576969058   120.55363189     0.72258936
 H      6   5   4     2.062764947402   118.36986976   181.22954771
 H      9   8   7     2.062112028496   118.91807907   358.86571918
 H     10   9   8     2.063900261434   121.45406200   179.30479263
 H     14  13  12     2.064046905676   117.79800163   359.93212886
 H     15  14  13     2.065025406108   120.08869867   180.01336216
 H     16  15  14     2.065239396434   119.18665504   180.01210683
 H     17  16  15     2.064003755021   121.88960216   179.99424686
 H     21   8   7     2.061877728941   121.55447214   358.24280701
 H     22   7   6     2.061812168932   121.17873469   178.37518684
 H     24   2   1     1.917179885048   126.06890354   358.16431564

------------------------------------------------------------------------------
                   ___                                                        
                  /   \      - P O W E R E D   B Y -                         
                 /     \                                                     
                 |  |  |   _    _      __       _____    __    __             
                 |  |  |  | |  | |    /  \     |  _  \  |  |  /  |          
                  \  \/   | |  | |   /    \    | | | |  |  | /  /          
                 / \  \   | |__| |  /  /\  \   | |_| |  |  |/  /          
                |  |  |   |  __  | /  /__\  \  |    /   |      \           
                |  |  |   | |  | | |   __   |  |    \   |  |\   \          
                \     /   | |  | | |  |  |  |  | |\  \  |  | \   \       
                 \___/    |_|  |_| |__|  |__|  |_| \__\ |__|  \__/        
                                                                              
                      - O R C A' S   B I G   F R I E N D -                    
                                      &                                       
                       - I N T E G R A L  F E E D E R -                       
                                                                              
 v1 FN, 2020, v2 2021, v3 2022-2024                                           
------------------------------------------------------------------------------


----------------------
SHARK INTEGRAL PACKAGE
----------------------

Number of atoms                             ...     37
Number of basis functions                   ...    401
Number of shells                            ...    183
Maximum angular momentum                    ...      2
Integral batch strategy                     ... SHARK/LIBINT Hybrid
RI-J (if used) integral strategy            ... SPLIT-RIJ (Revised 2003 algorithm where possible)
Printlevel                                  ...      1
Contraction scheme used                     ... SEGMENTED contraction
Prescreening option                         ... SCHWARTZ
   Thresh                                   ... 2.500e-11
   Tcut                                     ... 2.500e-12
   Tpresel                                  ... 2.500e-12 
Coulomb Range Separation                    ... NOT USED
Exchange Range Separation                   ... NOT USED
Multipole approximations                    ... NOT USED
Finite Nucleus Model                        ... NOT USED
CABS basis                                  ... NOT available
Auxiliary Coulomb fitting basis             ... AVAILABLE
   # of basis functions in Aux-J            ...   1319
   # of shells in Aux-J                     ...    425
   Maximum angular momentum in Aux-J        ...      4
Auxiliary J/K fitting basis                 ... NOT available
Auxiliary Correlation fitting basis         ... NOT available
Auxiliary 'external' fitting basis          ... NOT available

Checking pre-screening integrals            ... done (  0.0 sec) Dimension = 183
   => SHARK Basis and OBASIS are compatible. Storing Pre-screening
Shell pair information
Shell pair cut-off parameter TPreSel        ...   2.5e-12
Total number of shell pairs                 ...     16836
Shell pairs after pre-screening             ...     10509
Total number of primitive shell pairs       ...     62832
Primitive shell pairs kept                  ...     25453
          la=0 lb=0:   3067 shell pairs
          la=1 lb=0:   3839 shell pairs
          la=1 lb=1:   1261 shell pairs
          la=2 lb=0:   1323 shell pairs
          la=2 lb=1:    862 shell pairs
          la=2 lb=2:    157 shell pairs

Checking whether 4 symmetric matrices of dimension 401 fit in memory
:Max Core in MB      =   2000.00
 MB in use           =     15.17
 MB left             =   1984.83
 MB needed           =      2.46
 Data fit in memory  = YES
Calculating RI/J V-Matrix + Cholesky decomp.... done (  0.1 sec)
Calculating Nuclear repulsion               ... done (  0.0 sec) ENN=   1739.274803259151 Eh

Diagonalization of the overlap matrix:
Smallest eigenvalue                        ... 2.165e-04
Time for diagonalization                   ...    0.018 sec
Threshold for overlap eigenvalues          ... 1.000e-07
Number of eigenvalues below threshold      ... 0
Time for construction of square roots      ...    0.012 sec
Total time needed                          ...    0.032 sec

-------------------
DFT GRID GENERATION
-------------------

General Integration Accuracy     IntAcc      ... 4.388
Radial Grid Type                 RadialGrid  ... OptM3 with GC (2021)
Angular Grid (max. ang.)         AngularGrid ... 4 (Lebedev-302)
Angular grid pruning method      GridPruning ... 4 (adaptive)
Weight generation scheme         WeightScheme... mBecke (2022)
Basis function cutoff            BFCut       ... 1.0000e-11
Integration weight cutoff        WCut        ... 1.0000e-14
Partially contracted basis set               ... off
Rotationally invariant grid construction     ... off
Angular grids for H and He will be reduced by one unit

Total number of grid points                  ...   185210
Total number of batches                      ...     2912
Average number of points per batch           ...       63
Average number of grid points per atom       ...     5006

--------------------
COSX GRID GENERATION
--------------------

GRIDX 1
-------
General Integration Accuracy     IntAcc      ... 3.816
Radial Grid Type                 RadialGrid  ... OptM3 with GC (2021)
Angular Grid (max. ang.)         AngularGrid ... 1 (Lebedev-50)
Angular grid pruning method      GridPruning ... 4 (adaptive)
Weight generation scheme         WeightScheme... mBecke (2022)
Basis function cutoff            BFCut       ... 1.0000e-11
Integration weight cutoff        WCut        ... 1.0000e-14
Partially contracted basis set               ... on
Rotationally invariant grid construction     ... off
Angular grids for H and He will be reduced by one unit

Total number of grid points                  ...    23522
Total number of batches                      ...      201
Average number of points per batch           ...      117
Average number of grid points per atom       ...      636
UseSFitting                                  ... on

GRIDX 2
-------
General Integration Accuracy     IntAcc      ... 4.020
Radial Grid Type                 RadialGrid  ... OptM3 with GC (2021)
Angular Grid (max. ang.)         AngularGrid ... 2 (Lebedev-110)
Angular grid pruning method      GridPruning ... 4 (adaptive)
Weight generation scheme         WeightScheme... mBecke (2022)
Basis function cutoff            BFCut       ... 1.0000e-11
Integration weight cutoff        WCut        ... 1.0000e-14
Partially contracted basis set               ... on
Rotationally invariant grid construction     ... off
Angular grids for H and He will be reduced by one unit

Total number of grid points                  ...    52155
Total number of batches                      ...      426
Average number of points per batch           ...      122
Average number of grid points per atom       ...     1410
UseSFitting                                  ... on

GRIDX 3
-------
General Integration Accuracy     IntAcc      ... 4.338
Radial Grid Type                 RadialGrid  ... OptM3 with GC (2021)
Angular Grid (max. ang.)         AngularGrid ... 3 (Lebedev-194)
Angular grid pruning method      GridPruning ... 4 (adaptive)
Weight generation scheme         WeightScheme... mBecke (2022)
Basis function cutoff            BFCut       ... 1.0000e-11
Integration weight cutoff        WCut        ... 1.0000e-14
Partially contracted basis set               ... on
Rotationally invariant grid construction     ... off
Angular grids for H and He will be reduced by one unit

Total number of grid points                  ...   114463
Total number of batches                      ...      915
Average number of points per batch           ...      125
Average number of grid points per atom       ...     3094
UseSFitting                                  ... on
Grids setup in   4.7 sec
Initializing property integral containers    ... done (  0.0 sec)

SHARK setup successfully completed in   5.1 seconds

Maximum memory used throughout the entire STARTUP-calculation: 77.0 MB
Occupation numbers will be reassigned to an Aufbau configuration
             **** ENERGY FILE WAS UPDATED (C:\Users\jabreumiranda\Radioprotection_Pipeline_Project\06_Quantum_DFT_ORCA\CHEMBL1683055_neutral_opt.en.tmp) ****
Finished Guess after   0.2 sec
Maximum memory used throughout the entire GUESS-calculation: 28.5 MB
--------------------
CPCM SOLVATION MODEL
--------------------
CPCM parameters:
  Epsilon                                         ...      80.1510
  Refrac                                          ...       1.3328
  Rsolv                                           ...       1.3000
  Surface type                                    ... GAUSSIAN VDW
  Discretization scheme                           ... Constant charge density
    Threshold for H atoms                         ...       5.0000 (charges/Ang^2)
    Threshold for non-H atoms                     ...       5.0000 (charges/Ang^2)
  Epsilon function type                           ...         CPCM
Solvent:                                          ... WATER
Radii:
  Scheme                                          ... Element-dependent radii
  Radius for N  used is    3.5149 Bohr (=   1.8600 Ang.)
  Radius for C  used is    3.8550 Bohr (=   2.0400 Ang.)
  Radius for H  used is    2.4944 Bohr (=   1.3200 Ang.)
Calculating surface                               ...        done! (  0.0s)
Cavity surface points                             ...         3366
Cavity Volume                                     ...    2402.5557
Cavity Surface-area                               ...    1210.0620
Calculating surface distance matrix               ...        done! (  0.1s)
Performing Cholesky decomposition & store         ...        done! (  0.4s)
Overall time for CPCM initialization              ...                 0.5s

----------------------------------------D-I-I-S--------------------------------------------
Iteration    Energy (Eh)           Delta-E    RMSDP     MaxDP     DIISErr   Damp  Time(sec)
-------------------------------------------------------------------------------------------
               ***  Starting incremental Fock matrix formation  ***
                              *** Initializing SOSCF ***
---------------------------------------S-O-S-C-F--------------------------------------
Iteration    Energy (Eh)           Delta-E    RMSDP     MaxDP     MaxGrad    Time(sec)
--------------------------------------------------------------------------------------
    1    -1004.3552715299699685     0.00e+00  2.12e-05  1.57e-03  4.84e-05    26.0
               *** Restarting incremental Fock matrix formation ***
    2    -1004.3552778824462166    -6.35e-06  7.44e-06  4.83e-04  5.47e-05    25.4
    3    -1004.3552784731384691    -5.91e-07  3.35e-06  1.44e-04  1.79e-05    14.2
    4    -1004.3552784223786603     5.08e-08  2.00e-06  7.41e-05  2.76e-05    12.7
    5    -1004.3552785169279105    -9.45e-08  4.26e-07  2.02e-05  2.83e-06    11.9
    6    -1004.3552785320414387    -1.51e-08  2.54e-07  1.36e-05  4.58e-06     9.6
    7    -1004.3552785307917929     1.25e-09  1.79e-07  6.55e-06  7.07e-07     9.1
                 **** Energy Check signals convergence ****

               *****************************************************
               *                     SUCCESS                       *
               *           SCF CONVERGED AFTER   7 CYCLES          *
               *****************************************************

Recomputing exchange energy using gridx3       ... done (   40.133 sec)
Old exchange energy                            :    -27.199561248 Eh
New exchange energy                            :    -27.199594089 Eh
Exchange energy change after final integration :     -0.000032840 Eh
Total energy after final integration           :  -1004.355311369 Eh
             **** ENERGY FILE WAS UPDATED (C:\Users\jabreumiranda\Radioprotection_Pipeline_Project\06_Quantum_DFT_ORCA\CHEMBL1683055_neutral_opt.en.tmp) ****

----------------
TOTAL SCF ENERGY
----------------

Total Energy       :      -1004.35531136869838 Eh          -27329.89745 eV

Components:
Nuclear Repulsion  :       1739.27480325915053 Eh           47328.07351 eV
Electronic Energy  :      -2743.59442992757477 Eh          -74656.99993 eV
One Electron Energy:      -4815.69247405956776 Eh         -131041.65425 eV
Two Electron Energy:       2072.09804413199299 Eh           56384.65432 eV
CPCM Dielectric    :         -0.03565185992829 Eh              -0.97014 eV

Virial components:
Potential Energy   :      -1998.53540362561398 Eh          -54382.91311 eV
Kinetic Energy     :        994.18009225691560 Eh           27053.01566 eV
Virial Ratio       :          2.01023478461401

DFT components:
N(Alpha)           :       80.999985371734 electrons
N(Beta)            :       80.999985371734 electrons
N(Total)           :      161.999970743467 electrons
E(X)               :     -108.112909402541 Eh       
E(C)               :       -6.529800666847 Eh       
E(XC)              :     -114.642710069387 Eh       

CPCM Solvation Model Properties:
Surface-charge          :         -0.02717646403728
Corrected charge        :          0.00000000000000
Outlying charge corr.   :          0.00003722456051 Eh               0.00101 eV
Free-energy (cav+disp)  :  This term is not implemented in the current solvation scheme

---------------
SCF CONVERGENCE
---------------

  Last Energy change         ...   -1.2496e-09  Tolerance :   1.0000e-08
  Last MAX-Density change    ...    6.5452e-06  Tolerance :   1.0000e-07
  Last RMS-Density change    ...    1.7949e-07  Tolerance :   5.0000e-09
  Last DIIS Error            ...    9.8466e-04  Tolerance :   5.0000e-07
  Last Orbital Gradient      ...    7.0656e-07  Tolerance :   1.0000e-05
  Last Orbital Rotation      ...    3.4334e-06  Tolerance :   1.0000e-05


Total SCF time: 0 days 0 hours 2 min 37 sec 
Finished LeanSCF after 157.9 sec

Maximum memory used throughout the entire LEANSCF-calculation: 110.3 MB

------------------------------------------------------------------------------
                         ORCA PROPERTY INTEGRAL CALCULATIONS
------------------------------------------------------------------------------

GBWName                                   ... C:\Users\jabreumiranda\Radioprotection_Pipeline_Project\06_Quantum_DFT_ORCA\CHEMBL1683055_neutral_opt.gbw
Number of atoms                           ...     37
Number of basis functions                 ...    401
Max core memory                           ...   2000 MB

Dipole integrals                          ... YES
Quadrupole integrals                      ...  NO
Linear momentum integrals                 ...  NO
Angular momentum integrals                ...  NO
Higher moments length integrals           ...  NO
Higher moments velocity integrals         ...  NO
Kinetic energy integrals                  ...  NO
GIAO right hand sides                     ...  NO
GIAO dipole derivative integrals          ...  NO
SOC integrals                             ...  NO
EPR diamagnetic integrals (GIAO)          ...  NO
EPR gauge integrals                       ...  NO
Field gradient integrals                  ...  NO (   0 nuclei)
Spin-dipole/Fermi contact integrals       ...  NO (   0 nuclei)
Contact density integrals                 ...  NO (   0 nuclei)
Nucleus-orbit integrals                   ...  NO (   0 nuclei)
Geometric perturbations                   ...  NO (  37 nuclei)

Choice of electric origin   ... Center of mass
Position of electric origin ... (  0.0607,  0.0376,  0.0517) 
Choice of magnetic origin   ... GIAO
Position of magnetic origin ... (  0.0000,  0.0000,  0.0000) 

Calculating integrals                     ... Electric Dipole (Length)     done (  0.0 sec)

Property integrals calculated in   0.0 sec

Maximum memory used throughout the entire PROPINT-calculation: 26.9 MB


-------------------------------------------------------------------------------
                          DFT DISPERSION CORRECTION                            
                                                                               
                              DFTD3 V3.1  Rev 1                                
                          USING Becke-Johnson damping                          
-------------------------------------------------------------------------------
-------------------------   ----------------
Dispersion correction           -0.088078990
-------------------------   ----------------


-------------------------   --------------------
FINAL SINGLE POINT ENERGY     -1004.443390358420
-------------------------   --------------------

------------------------------------------------------------------------------
                         ORCA SCF GRADIENT CALCULATION
------------------------------------------------------------------------------

Nuc. rep. gradient        (SHARK) ... done (  0.0 sec)
HCore & Overlap gradient  (SHARK) ... done (  1.1 sec)
Split-RIJ-J gradient      (SHARK) ... done (  6.8 sec)
COSX-gradient                     ... done ( 97.9 sec)
XC gradient                       ... done ( 15.4 sec)
CPCM gradient                     ... done (  5.6 sec)
Dispersion correction             ... done (  0.1 sec)

-------------------
DISPERSION GRADIENT
-------------------

   1   N   :    0.000460652   -0.000208801   -0.000123681
   2   C   :   -0.002619898    0.001889524    0.000907629
   3   N   :    0.000017498   -0.000110897   -0.000022128
   4   C   :    0.001185597   -0.002295315   -0.000768569
   5   C   :    0.000207383    0.000309997    0.000023590
   6   C   :    0.000555484    0.000173936   -0.000085038
   7   C   :    0.000417310   -0.000119671   -0.000108432
   8   C   :   -0.000178730    0.000037086    0.000060634
   9   C   :   -0.000253624    0.000213877    0.000279942
  10   C   :   -0.000073696    0.000347468    0.000361215
  11   C   :   -0.000417092   -0.000156218   -0.000089258
  12   N   :   -0.000136837    0.000235666    0.000240043
  13   C   :    0.000376975    0.000106820    0.000049306
  14   C   :   -0.000426520    0.000150883    0.000198637
  15   C   :   -0.000365586   -0.000007162    0.000042079
  16   C   :   -0.000263175   -0.000206154   -0.000158390
  17   C   :   -0.000161989   -0.000348318   -0.000305213
  18   C   :    0.000335261    0.000142949    0.000090302
  19   N   :    0.000102198   -0.000223289   -0.000227871
  20   C   :   -0.000595981   -0.000079508   -0.000019131
  21   C   :   -0.000120759   -0.000115390   -0.000136986
  22   C   :    0.000131946   -0.000136895   -0.000019205
  23   C   :    0.001842591    0.000174656   -0.000243767
  24   N   :    0.000170203    0.000392385    0.000079172
  25   H   :    0.000207433   -0.000052115   -0.000059090
  26   H   :    0.000169913   -0.000148320   -0.000084507
  27   H   :    0.000127795    0.000293800    0.000048862
  28   H   :    0.000108694    0.000336041    0.000041065
  29   H   :   -0.000018910    0.000242622    0.000265071
  30   H   :   -0.000027401    0.000236024    0.000228601
  31   H   :   -0.000206962    0.000163076    0.000180721
  32   H   :   -0.000278113    0.000012368    0.000048681
  33   H   :   -0.000181650   -0.000169426   -0.000134833
  34   H   :    0.000001096   -0.000233069   -0.000218958
  35   H   :   -0.000040402   -0.000205628   -0.000226646
  36   H   :   -0.000030425   -0.000313345   -0.000041118
  37   H   :   -0.000020276   -0.000329657   -0.000072729

Difference to translation invariance:
           :   -0.0000000000   -0.0000000000    0.0000000000

Difference to rotation invariance:
           :    0.0000000000   -0.0000000000   -0.0000000000

Norm of the Dispersion gradient    ...    0.0051817323
RMS gradient                       ...    0.0004918283
MAX gradient                       ...    0.0026198984

------------------
CARTESIAN GRADIENT
------------------

   1   N   :    0.000033784    0.000019646    0.000186830
   2   C   :   -0.000101399    0.000007196   -0.000043747
   3   N   :    0.000042276   -0.000016984    0.000033970
   4   C   :    0.000053956    0.000037711   -0.000002523
   5   C   :    0.000024514    0.000038229    0.000013815
   6   C   :   -0.000167728   -0.000070261    0.000000893
   7   C   :    0.000124205   -0.000097449   -0.000036403
   8   C   :   -0.000111268    0.000054068    0.000033161
   9   C   :    0.000128347   -0.000088623   -0.000072749
  10   C   :   -0.000005215    0.000029818    0.000036571
  11   C   :   -0.000108284    0.000024873    0.000040955
  12   N   :   -0.000008766    0.000012023    0.000019193
  13   C   :    0.000041543    0.000046665    0.000036914
  14   C   :   -0.000045804   -0.000004054    0.000003099
  15   C   :   -0.000003437    0.000036990    0.000033623
  16   C   :    0.000032799   -0.000027519   -0.000038290
  17   C   :   -0.000034261   -0.000021753   -0.000022757
  18   C   :    0.000066585   -0.000011231   -0.000019832
  19   N   :    0.000030533   -0.000017762   -0.000032882
  20   C   :   -0.000080123   -0.000078930   -0.000058462
  21   C   :    0.000210306    0.000051599   -0.000001872
  22   C   :   -0.000129919    0.000074221    0.000053058
  23   C   :   -0.000021719   -0.000005948    0.000010350
  24   N   :   -0.000005422   -0.000014083   -0.000034882
  25   H   :   -0.000001841   -0.000028965   -0.000118102
  26   H   :    0.000038773    0.000005897   -0.000039601
  27   H   :   -0.000023707    0.000018185    0.000010348
  28   H   :    0.000073816    0.000042689    0.000014721
  29   H   :   -0.000072148    0.000049476    0.000047619
  30   H   :    0.000056596    0.000013984    0.000019024
  31   H   :   -0.000028401   -0.000009647   -0.000004321
  32   H   :   -0.000001442    0.000011289    0.000006277
  33   H   :    0.000008954   -0.000007032   -0.000014666
  34   H   :   -0.000025528   -0.000008044   -0.000012040
  35   H   :   -0.000048917   -0.000018339   -0.000014950
  36   H   :    0.000051294   -0.000042840   -0.000024151
  37   H   :    0.000007046   -0.000005093   -0.000008192

Difference to translation invariance:
           :    0.0000000001    0.0000000000    0.0000000000

Difference to rotation invariance:
           :    0.0004933229   -0.0005163424    0.0002435335

Norm of the Cartesian gradient     ...    0.0005865857
RMS gradient                       ...    0.0000556763
MAX gradient                       ...    0.0002103060

-------
TIMINGS
-------

Total SCF gradient time     ....      126.960 sec

Densities                   ....       0.005 sec  (  0.0%)
One electron gradient       ....       1.094 sec  (  0.9%)
RI-J Coulomb gradient       ....       6.809 sec  (  5.4%)
COSX gradient               ....      97.889 sec  ( 77.1%)
XC gradient                 ....      15.438 sec  ( 12.2%)
CPCM gradient               ....       5.632 sec  (  4.4%)
   A-Matrix (El+Nuc)        ....       0.584 sec  (  0.5%)
   Potential                ....       5.048 sec  (  4.0%)

Maximum memory used throughout the entire SCFGRAD-calculation: 59.3 MB
------------------------------------------------------------------------------
                         ORCA GEOMETRY RELAXATION STEP
------------------------------------------------------------------------------

Reading the OPT-File                    .... done
Getting information on internals        .... done
Copying old internal coords+grads       .... done
Making the new internal coordinates     .... (2022 redundants) done
Validating the new internal coordinates .... (2022 redundants) done
Calculating the B-matrix                .... done
Calculating the G,G- and P matrices     .... done
Transforming gradient to internals      .... done
Projecting the internal gradient        .... done
Number of atoms                         ....  37
Number of internal coordinates          .... 207
Current Energy                          .... -1004.443390358 Eh
Current gradient norm                   ....     0.000586586 Eh/bohr
Maximum allowed component of the step   ....  0.300
Current trust radius                    ....  0.467
Updating the Hessian (BFGS)             .... done
Forming the augmented Hessian           .... done
Diagonalizing the augmented Hessian     .... done
Last element of RFO vector              ....  0.999971725
Lowest eigenvalues of augmented Hessian:
 -0.000001314  0.006798255  0.009097620  0.020777447  0.021690650
Length of the computed step             ....  0.007520159
The final length of the internal step   ....  0.007520159
Converting the step to Cartesian space:
 Initial RMS(Int)=    0.0005226872
Transforming coordinates:
 Iter   0:  RMS(Cart)=    0.0007707039 RMS(Int)=    0.0005227153
done
Storing new coordinates                 .... done
The predicted energy change is          ....    -0.000000657
Previously predicted energy change      ....    -0.000001380
Actually observed energy change         ....    -0.000002793
Ratio of predicted to observed change   ....     2.024961686
New trust radius                        ....     0.311111111

                                .--------------------.
          ----------------------|Geometry convergence|-------------------------
          Item                value                   Tolerance       Converged
          ---------------------------------------------------------------------
          Energy change      -0.0000027935            0.0000050000      YES
          RMS gradient        0.0000295493            0.0001000000      YES
          MAX gradient        0.0001111082            0.0003000000      YES
          RMS step            0.0005226872            0.0020000000      YES
          MAX step            0.0040767022            0.0040000000      NO
          -------------------------------------------------------------------------
          ........................................................
          Max(Bonds)      0.0002      Max(Angles)    0.10
          Max(Dihed)        0.23      Max(Improp)    0.00
          ---------------------------------------------------------------------

The optimization has not yet converged - more geometry cycles are needed


    ---------------------------------------------------------------------------
                         Redundant Internal Coordinates
                            (Angstroem and degrees)

        Definition                    Value    dE/dq     Step     New-Value
    ----------------------------------------------------------------------------
     1. B(C   1,N   0)                1.3568  0.000055 -0.0002    1.3565   
     2. B(N   2,C   1)                1.3268  0.000013 -0.0000    1.3268   
     3. B(C   3,N   2)                1.3824  0.000016  0.0000    1.3824   
     4. B(C   4,C   3)                1.4017  0.000030 -0.0001    1.4016   
     5. B(C   5,C   4)                1.3965  0.000021  0.0000    1.3965   
     6. B(C   6,C   5)                1.4176 -0.000031  0.0000    1.4176   
     7. B(C   7,C   6)                1.4808 -0.000001  0.0001    1.4809   
     8. B(C   8,C   7)                1.4427 -0.000043  0.0001    1.4428   
     9. B(C   9,C   8)                1.3689  0.000008 -0.0000    1.3689   
    10. B(C  10,C   9)                1.4310  0.000075 -0.0000    1.4309   
    11. B(N  11,C  10)                1.3368 -0.000005 -0.0000    1.3368   
    12. B(C  12,N  11)                1.3425  0.000006 -0.0001    1.3424   
    13. B(C  13,C  12)                1.4297  0.000061 -0.0000    1.4297   
    14. B(C  14,C  13)                1.3736 -0.000023  0.0000    1.3736   
    15. B(C  15,C  14)                1.4294  0.000053 -0.0000    1.4294   
    16. B(C  16,C  15)                1.3733 -0.000024  0.0000    1.3734   
    17. B(C  17,C  16)                1.4308  0.000062 -0.0000    1.4308   
    18. B(C  17,C  12)                1.4494  0.000097 -0.0001    1.4493   
    19. B(N  18,C  17)                1.3408  0.000008 -0.0000    1.3408   
    20. B(C  19,N  18)                1.3417 -0.000008 -0.0000    1.3416   
    21. B(C  19,C  10)                1.4497  0.000111 -0.0001    1.4495   
    22. B(C  20,C  19)                1.4255  0.000097 -0.0000    1.4255   
    23. B(C  20,C   7)                1.3839 -0.000045  0.0000    1.3840   
    24. B(C  21,C   6)                1.4129 -0.000061  0.0001    1.4129   
    25. B(C  22,C  21)                1.3877  0.000022 -0.0000    1.3877   
    26. B(C  22,C   3)                1.4258  0.000054 -0.0000    1.4258   
    27. B(N  23,C  22)                1.3867  0.000022 -0.0000    1.3866   
    28. B(N  23,C   1)                1.3765 -0.000003  0.0000    1.3765   
    29. B(H  24,N   0)                1.0147  0.000010 -0.0001    1.0146   
    30. B(H  25,N   0)                1.0149  0.000011 -0.0001    1.0148   
    31. B(H  26,C   4)                1.0925  0.000003 -0.0000    1.0925   
    32. B(H  27,C   5)                1.0916  0.000009 -0.0000    1.0915   
    33. B(H  28,C   8)                1.0912  0.000008 -0.0000    1.0912   
    34. B(H  29,C   9)                1.0922  0.000001 -0.0000    1.0922   
    35. B(H  30,C  13)                1.0922  0.000002 -0.0000    1.0922   
    36. B(H  31,C  14)                1.0928  0.000004 -0.0000    1.0928   
    37. B(H  32,C  15)                1.0929  0.000004 -0.0000    1.0929   
    38. B(H  33,C  16)                1.0922  0.000002 -0.0000    1.0922   
    39. B(H  34,C  20)                1.0911  0.000007 -0.0000    1.0911   
    40. B(H  35,C  21)                1.0911  0.000011 -0.0000    1.0910   
    41. B(H  36,N  23)                1.0145  0.000006 -0.0000    1.0145   
    42. A(C   1,N   0,H  24)          116.01  0.000021    0.07    116.07   
    43. A(H  24,N   0,H  25)          115.31 -0.000074    0.10    115.41   
    44. A(C   1,N   0,H  25)          118.34  0.000012    0.06    118.40   
    45. A(N   2,C   1,N  23)          112.92  0.000023   -0.00    112.92   
    46. A(N   0,C   1,N  23)          121.79  0.000019   -0.00    121.79   
    47. A(N   0,C   1,N   2)          125.24 -0.000042    0.01    125.24   
    48. A(C   1,N   2,C   3)          105.09 -0.000004    0.00    105.09   
    49. A(N   2,C   3,C  22)          110.32 -0.000011    0.00    110.32   
    50. A(C   4,C   3,C  22)          118.76 -0.000032    0.01    118.77   
    51. A(N   2,C   3,C   4)          130.92  0.000043   -0.01    130.91   
    52. A(C   3,C   4,C   5)          118.63 -0.000013    0.00    118.64   
    53. A(C   5,C   4,H  26)          120.81 -0.000024    0.01    120.82   
    54. A(C   3,C   4,H  26)          120.55  0.000037   -0.01    120.55   
    55. A(C   4,C   5,C   6)          122.40  0.000013   -0.01    122.39   
    56. A(C   4,C   5,H  27)          118.37 -0.000095    0.04    118.41   
    57. A(C   6,C   5,H  27)          119.21  0.000082   -0.03    119.19   
    58. A(C   5,C   6,C   7)          120.58 -0.000073    0.01    120.59   
    59. A(C   5,C   6,C  21)          119.22  0.000033    0.01    119.22   
    60. A(C   7,C   6,C  21)          120.19  0.000040   -0.01    120.18   
    61. A(C   8,C   7,C  20)          118.17  0.000032    0.01    118.18   
    62. A(C   6,C   7,C  20)          121.69 -0.000028    0.00    121.69   
    63. A(C   6,C   7,C   8)          120.14 -0.000004   -0.01    120.13   
    64. A(C   7,C   8,H  28)          118.92  0.000091   -0.02    118.89   
    65. A(C   9,C   8,H  28)          119.05 -0.000110    0.03    119.08   
    66. A(C   7,C   8,C   9)          122.02  0.000019   -0.01    122.01   
    67. A(C  10,C   9,H  29)          117.91  0.000059   -0.00    117.91   
    68. A(C   8,C   9,H  29)          121.45 -0.000069    0.01    121.46   
    69. A(C   8,C   9,C  10)          120.63  0.000010   -0.00    120.63   
    70. A(N  11,C  10,C  19)          121.45  0.000012   -0.01    121.44   
    71. A(C   9,C  10,C  19)          118.20 -0.000044    0.01    118.21   
    72. A(C   9,C  10,N  11)          120.35  0.000032   -0.00    120.35   
    73. A(C  10,N  11,C  12)          117.71 -0.000034    0.01    117.72   
    74. A(N  11,C  12,C  13)          119.97 -0.000003    0.01    119.98   
    75. A(C  13,C  12,C  17)          119.04 -0.000017    0.00    119.04   
    76. A(N  11,C  12,C  17)          120.99  0.000020   -0.01    120.98   
    77. A(C  14,C  13,H  30)          121.89 -0.000032   -0.00    121.88   
    78. A(C  12,C  13,C  14)          120.32  0.000005    0.00    120.32   
    79. A(C  12,C  13,H  30)          117.80  0.000027    0.00    117.80   
    80. A(C  13,C  14,C  15)          120.69  0.000012   -0.00    120.69   
    81. A(C  13,C  14,H  31)          120.09 -0.000022   -0.00    120.08   
    82. A(C  15,C  14,H  31)          119.22  0.000010    0.01    119.23   
    83. A(C  16,C  15,H  32)          120.02 -0.000020   -0.00    120.02   
    84. A(C  14,C  15,H  32)          119.19  0.000010    0.01    119.19   
    85. A(C  14,C  15,C  16)          120.79  0.000011   -0.00    120.79   
    86. A(C  15,C  16,H  33)          121.89 -0.000032   -0.00    121.89   
    87. A(C  17,C  16,H  33)          117.77  0.000028    0.00    117.78   
    88. A(C  15,C  16,C  17)          120.34  0.000005   -0.00    120.34   
    89. A(C  16,C  17,N  18)          119.96 -0.000000    0.01    119.96   
    90. A(C  12,C  17,N  18)          121.21  0.000016   -0.01    121.20   
    91. A(C  12,C  17,C  16)          118.83 -0.000016    0.00    118.84   
    92. A(C  17,N  18,C  19)          117.78 -0.000038    0.02    117.80   
    93. A(N  18,C  19,C  20)          119.88 -0.000009    0.01    119.89   
    94. A(C  10,C  19,C  20)          119.25 -0.000015    0.00    119.25   
    95. A(C  10,C  19,N  18)          120.87  0.000024   -0.01    120.86   
    96. A(C  19,C  20,H  34)          116.71 -0.000055    0.03    116.74   
    97. A(C   7,C  20,H  34)          121.55  0.000057   -0.03    121.53   
    98. A(C   7,C  20,C  19)          121.72 -0.000002   -0.01    121.72   
    99. A(C   6,C  21,H  35)          121.18  0.000083   -0.02    121.16   
   100. A(C   6,C  21,C  22)          118.03 -0.000023   -0.00    118.03   
   101. A(C  22,C  21,H  35)          120.77 -0.000060    0.02    120.79   
   102. A(C  21,C  22,N  23)          132.55 -0.000023    0.00    132.56   
   103. A(C   3,C  22,N  23)          104.49  0.000001   -0.00    104.49   
   104. A(C   3,C  22,C  21)          122.96  0.000022   -0.00    122.95   
   105. A(C   1,N  23,C  22)          107.17 -0.000009    0.00    107.18   
   106. A(C  22,N  23,H  36)          126.75  0.000013   -0.00    126.75   
   107. A(C   1,N  23,H  36)          126.07 -0.000004    0.00    126.07   
   108. D(N   2,C   1,N   0,H  24)    -17.20 -0.000082    0.23    -16.97   
   109. D(N  23,C   1,N   0,H  25)     22.18  0.000014   -0.17     22.01   
   110. D(N  23,C   1,N   0,H  24)    165.65 -0.000076    0.20    165.86   
   111. D(N   2,C   1,N   0,H  25)   -160.68  0.000008   -0.14   -160.82   
   112. D(C   3,N   2,C   1,N   0)   -177.27  0.000005   -0.03   -177.30   
   113. D(C   3,N   2,C   1,N  23)      0.09 -0.000001   -0.00      0.09   
   114. D(C   4,C   3,N   2,C   1)    179.54 -0.000001   -0.00    179.54   
   115. D(C  22,C   3,N   2,C   1)     -0.21  0.000002   -0.00     -0.21   
   116. D(H  26,C   4,C   3,N   2)      0.72  0.000003   -0.00      0.72   
   117. D(H  26,C   4,C   3,C  22)   -179.54  0.000000   -0.00   -179.54   
   118. D(C   5,C   4,C   3,C  22)      0.24 -0.000000   -0.00      0.24   
   119. D(C   5,C   4,C   3,N   2)   -179.50  0.000002   -0.00   -179.50   
   120. D(H  27,C   5,C   4,C   3)   -178.77 -0.000005    0.01   -178.76   
   121. D(C   6,C   5,C   4,C   3)     -0.47 -0.000001    0.01     -0.46   
   122. D(C   6,C   5,C   4,H  26)    179.31 -0.000002    0.00    179.32   
   123. D(H  27,C   5,C   4,H  26)      1.01 -0.000005    0.01      1.02   
   124. D(C  21,C   6,C   5,H  27)    178.66  0.000003   -0.01    178.65   
   125. D(C  21,C   6,C   5,C   4)      0.37  0.000002   -0.01      0.36   
   126. D(C   7,C   6,C   5,H  27)     -0.68  0.000004   -0.01     -0.69   
   127. D(C   7,C   6,C   5,C   4)   -178.97  0.000003   -0.01   -178.97   
   128. D(C  20,C   7,C   6,C  21)    -28.02 -0.000006    0.02    -27.99   
   129. D(C   8,C   7,C   6,C  21)    151.71 -0.000007    0.02    151.73   
   130. D(C  20,C   7,C   6,C   5)    151.31 -0.000007    0.02    151.34   
   131. D(C   8,C   7,C   6,C   5)    -28.96 -0.000008    0.02    -28.94   
   132. D(H  28,C   8,C   7,C  20)    178.60  0.000005   -0.01    178.59   
   133. D(H  28,C   8,C   7,C   6)     -1.13  0.000007   -0.00     -1.14   
   134. D(C   9,C   8,C   7,C  20)      0.06  0.000004   -0.00      0.06   
   135. D(C   9,C   8,C   7,C   6)   -179.68  0.000005    0.00   -179.67   
   136. D(H  29,C   9,C   8,C   7)    179.30 -0.000001    0.00    179.31   
   137. D(C  10,C   9,C   8,H  28)   -178.65 -0.000006    0.01   -178.64   
   138. D(C  10,C   9,C   8,C   7)     -0.10 -0.000001    0.00     -0.10   
   139. D(H  29,C   9,C   8,H  28)      0.76 -0.000005    0.01      0.77   
   140. D(C  19,C  10,C   9,H  29)   -179.27 -0.000001   -0.01   -179.28   
   141. D(C  19,C  10,C   9,C   8)      0.16 -0.000001   -0.01      0.15   
   142. D(N  11,C  10,C   9,H  29)      0.67  0.000000   -0.01      0.66   
   143. D(N  11,C  10,C   9,C   8)   -179.90 -0.000000   -0.01   -179.91   
   144. D(C  12,N  11,C  10,C  19)     -0.27  0.000001   -0.00     -0.27   
   145. D(C  12,N  11,C  10,C   9)    179.80  0.000000   -0.00    179.80   
   146. D(C  17,C  12,N  11,C  10)      0.02  0.000000   -0.00      0.02   
   147. D(C  13,C  12,N  11,C  10)   -179.93  0.000000   -0.00   -179.93   
   148. D(H  30,C  13,C  12,C  17)    179.98  0.000001   -0.00    179.98   
   149. D(H  30,C  13,C  12,N  11)     -0.07  0.000002   -0.01     -0.07   
   150. D(C  14,C  13,C  12,C  17)     -0.05  0.000001   -0.00     -0.05   
   151. D(C  14,C  13,C  12,N  11)    179.90  0.000001   -0.01    179.90   
   152. D(H  31,C  14,C  13,H  30)     -0.02 -0.000000   -0.00     -0.02   
   153. D(H  31,C  14,C  13,C  12)   -179.99  0.000000    0.00   -179.99   
   154. D(C  15,C  14,C  13,H  30)    179.98 -0.000000   -0.00    179.98   
   155. D(C  15,C  14,C  13,C  12)      0.01  0.000000   -0.00      0.01   
   156. D(H  32,C  15,C  14,H  31)      0.01 -0.000001    0.00      0.01   
   157. D(H  32,C  15,C  14,C  13)   -179.99 -0.000001    0.00   -179.99   
   158. D(C  16,C  15,C  14,H  31)   -179.99 -0.000001    0.00   -179.98   
   159. D(C  16,C  15,C  14,C  13)      0.02 -0.000001    0.00      0.02   
   160. D(H  33,C  16,C  15,H  32)     -0.00  0.000000   -0.00     -0.00   
   161. D(H  33,C  16,C  15,C  14)    179.99 -0.000000   -0.00    179.99   
   162. D(C  17,C  16,C  15,H  32)    180.00  0.000001    0.00    180.00   
   163. D(C  17,C  16,C  15,C  14)     -0.01  0.000001   -0.00     -0.01   
   164. D(C  12,C  17,C  16,H  33)    179.97  0.000001   -0.00    179.97   
   165. D(C  12,C  17,C  16,C  15)     -0.03  0.000001   -0.00     -0.04   
   166. D(N  18,C  17,C  12,C  13)   -179.92 -0.000002    0.01   -179.92   
   167. D(N  18,C  17,C  12,N  11)      0.13 -0.000002    0.01      0.14   
   168. D(C  16,C  17,C  12,C  13)      0.06 -0.000002    0.01      0.06   
   169. D(N  18,C  17,C  16,C  15)    179.95  0.000001   -0.01    179.94   
   170. D(C  16,C  17,C  12,N  11)   -179.89 -0.000002    0.01   -179.88   
   171. D(N  18,C  17,C  16,H  33)     -0.05  0.000001   -0.01     -0.05   
   172. D(C  19,N  18,C  17,C  16)   -179.99  0.000002   -0.00   -180.00   
   173. D(C  19,N  18,C  17,C  12)     -0.01  0.000002   -0.00     -0.02   
   174. D(C  20,C  19,N  18,C  17)   -179.73 -0.000002   -0.01   -179.74   
   175. D(C  10,C  19,N  18,C  17)     -0.23 -0.000001   -0.00     -0.24   
   176. D(C  20,C  19,C  10,N  11)    179.89  0.000000    0.01    179.90   
   177. D(C  20,C  19,C  10,C   9)     -0.17  0.000001    0.01     -0.16   
   178. D(N  18,C  19,C  10,N  11)      0.39 -0.000000    0.01      0.40   
   179. D(N  18,C  19,C  10,C   9)   -179.67  0.000001    0.01   -179.67   
   180. D(H  34,C  20,C  19,N  18)      0.99 -0.000001    0.00      0.99   
   181. D(H  34,C  20,C  19,C  10)   -178.52 -0.000002    0.00   -178.51   
   182. D(C   7,C  20,C  19,N  18)    179.64  0.000002   -0.00    179.63   
   183. D(C   7,C  20,C  19,C  10)      0.13  0.000001   -0.00      0.13   
   184. D(H  34,C  20,C   7,C   8)    178.51 -0.000002   -0.01    178.51   
   185. D(H  34,C  20,C   7,C   6)     -1.76 -0.000003   -0.01     -1.77   
   186. D(C  19,C  20,C   7,C   8)     -0.07 -0.000004    0.00     -0.07   
   187. D(C  19,C  20,C   7,C   6)    179.66 -0.000005   -0.00    179.66   
   188. D(H  35,C  21,C   6,C   7)     -2.28 -0.000002   -0.01     -2.29   
   189. D(H  35,C  21,C   6,C   5)    178.38 -0.000000   -0.01    178.37   
   190. D(C  22,C  21,C   6,C   7)    179.30 -0.000003    0.00    179.30   
   191. D(C  22,C  21,C   6,C   5)     -0.04 -0.000001    0.00     -0.04   
   192. D(N  23,C  22,C  21,H  35)      0.90 -0.000002    0.00      0.90   
   193. D(N  23,C  22,C  21,C   6)    179.32  0.000001   -0.01    179.32   
   194. D(C   3,C  22,C  21,H  35)   -178.60 -0.000004    0.01   -178.59   
   195. D(C   3,C  22,C  21,C   6)     -0.17 -0.000000    0.00     -0.17   
   196. D(N  23,C  22,C   3,C   4)   -179.54 -0.000000    0.00   -179.54   
   197. D(N  23,C  22,C   3,N   2)      0.24 -0.000002    0.01      0.25   
   198. D(C  21,C  22,C   3,C   4)      0.08  0.000001   -0.00      0.07   
   199. D(C  21,C  22,C   3,N   2)    179.86 -0.000001    0.00    179.86   
   200. D(H  36,N  23,C  22,C  21)     -0.39 -0.000002    0.04     -0.35   
   201. D(H  36,N  23,C  22,C   3)    179.18 -0.000000    0.04    179.21   
   202. D(C   1,N  23,C  22,C  21)   -179.75 -0.000000   -0.00   -179.75   
   203. D(C   1,N  23,C  22,C   3)     -0.18  0.000002   -0.01     -0.19   
   204. D(H  36,N  23,C   1,N   2)   -179.30  0.000001   -0.04   -179.34   
   205. D(H  36,N  23,C   1,N   0)     -1.84 -0.000006   -0.01     -1.85   
   206. D(C  22,N  23,C   1,N   2)      0.06 -0.000001    0.01      0.07   
   207. D(C  22,N  23,C   1,N   0)    177.53 -0.000008    0.03    177.56   
    ----------------------------------------------------------------------------

Geometry step timings:
Preparation and reading OPT file:      0.013 s (48.148 %)
Internal coordinates            :      0.000 s ( 0.000 %)
B/P matrices and projection     :      0.004 s (14.815 %)
Hessian update/contruction      :      0.004 s (14.815 %)
Making the step                 :      0.003 s (11.111 %)
Converting the step to Cartesian:      0.000 s ( 0.000 %)
Storing new data                :      0.000 s ( 0.000 %)
Checking convergence            :      0.001 s ( 3.704 %)
Final printing                  :      0.002 s ( 7.407 %)
Total time                      :      0.027 s

Time for energy+gradient        :    290.749 s
Time for complete geometry iter :    290.877 s

         *************************************************************
         *                GEOMETRY OPTIMIZATION CYCLE  12            *
         *************************************************************
---------------------------------
CARTESIAN COORDINATES (ANGSTROEM)
---------------------------------
  N      7.080703   -1.696636   -1.206832
  C      5.982134   -0.965547   -0.892432
  N      5.985159    0.322255   -0.573226
  C      4.669210    0.622096   -0.274349
  C      4.071231    1.822083    0.134355
  C      2.696708    1.834959    0.380672
  C      1.886239    0.682632    0.222988
  C      0.428050    0.746787    0.473546
  C     -0.102352    1.692590    1.425285
  C     -1.442300    1.780256    1.691406
  C     -2.375657    0.925850    1.023322
  N     -3.683168    1.017442    1.286199
  C     -4.512061    0.193174    0.626156
  C     -5.919856    0.250986    0.868875
  C     -6.774458   -0.587675    0.195841
  C     -6.273424   -1.529663   -0.755329
  C     -4.927964   -1.616956   -1.016540
  C     -4.003005   -0.762232   -0.337439
  N     -2.690927   -0.854604   -0.597424
  C     -1.862623   -0.032297    0.064191
  C     -0.459640   -0.088596   -0.181813
  C      2.483258   -0.529253   -0.190842
  C      3.850658   -0.535261   -0.427254
  N      4.729814   -1.532402   -0.821651
  H      7.911959   -1.169249   -1.452548
  H      6.952563   -2.567598   -1.711693
  H      4.669731    2.728287    0.253537
  H      2.231387    2.776262    0.678796
  H      0.589232    2.340925    1.965730
  H     -1.832995    2.492005    2.421884
  H     -6.281418    0.978147    1.599290
  H     -7.849823   -0.540119    0.384123
  H     -6.975331   -2.185026   -1.277047
  H     -4.525655   -2.330017   -1.739478
  H     -0.120781   -0.807311   -0.929527
  H      1.894114   -1.441423   -0.296783
  H      4.501291   -2.501974   -1.013889

----------------------------
CARTESIAN COORDINATES (A.U.)
----------------------------
  NO LB      ZA    FRAG     MASS         X           Y           Z
   0 N     7.0000    0    14.007   13.380589   -3.206178   -2.280582
   1 C     6.0000    0    12.011   11.304594   -1.824619   -1.686452
   2 N     7.0000    0    14.007   11.310311    0.608973   -1.083240
   3 C     6.0000    0    12.011    8.823527    1.175592   -0.518444
   4 C     6.0000    0    12.011    7.693511    3.443237    0.253895
   5 C     6.0000    0    12.011    5.096040    3.467570    0.719366
   6 C     6.0000    0    12.011    3.564476    1.289987    0.421387
   7 C     6.0000    0    12.011    0.808897    1.411222    0.894872
   8 C     6.0000    0    12.011   -0.193417    3.198531    2.693398
   9 C     6.0000    0    12.011   -2.725551    3.364197    3.196295
  10 C     6.0000    0    12.011   -4.489342    1.749603    1.933799
  11 N     7.0000    0    14.007   -6.960180    1.922686    2.430564
  12 C     6.0000    0    12.011   -8.526560    0.365047    1.183263
  13 C     6.0000    0    12.011  -11.186907    0.474294    1.641935
  14 C     6.0000    0    12.011  -12.801871   -1.110545    0.370086
  15 C     6.0000    0    12.011  -11.855054   -2.890643   -1.427364
  16 C     6.0000    0    12.011   -9.312502   -3.055604   -1.920983
  17 C     6.0000    0    12.011   -7.564584   -1.440410   -0.637667
  18 N     7.0000    0    14.007   -5.085114   -1.614967   -1.128969
  19 C     6.0000    0    12.011   -3.519847   -0.061032    0.121303
  20 C     6.0000    0    12.011   -0.868593   -0.167421   -0.343577
  21 C     6.0000    0    12.011    4.692677   -1.000143   -0.360638
  22 C     6.0000    0    12.011    7.276689   -1.011496   -0.807393
  23 N     7.0000    0    14.007    8.938052   -2.895819   -1.552694
  24 H     1.0000    0     1.008   14.951436   -2.209560   -2.744918
  25 H     1.0000    0     1.008   13.138440   -4.852058   -3.234631
  26 H     1.0000    0     1.008    8.824513    5.155716    0.479115
  27 H     1.0000    0     1.008    4.216711    5.246375    1.282738
  28 H     1.0000    0     1.008    1.113487    4.423708    3.714690
  29 H     1.0000    0     1.008   -3.463859    4.709208    4.576698
  30 H     1.0000    0     1.008  -11.870159    1.848430    3.022220
  31 H     1.0000    0     1.008  -14.834015   -1.020677    0.725888
  32 H     1.0000    0     1.008  -13.181466   -4.129101   -2.413269
  33 H     1.0000    0     1.008   -8.552249   -4.403095   -3.287136
  34 H     1.0000    0     1.008   -0.228243   -1.525596   -1.756552
  35 H     1.0000    0     1.008    3.579356   -2.723895   -0.560839
  36 H     1.0000    0     1.008    8.506207   -4.728045   -1.915972

--------------------------------
INTERNAL COORDINATES (ANGSTROEM)
--------------------------------
 N      0   0   0     0.000000000000     0.00000000     0.00000000
 C      1   0   0     1.356536833457     0.00000000     0.00000000
 N      2   1   0     1.326776338831   125.24123978     0.00000000
 C      3   2   1     1.382372904560   105.09249298   182.69811238
 C      4   3   2     1.401636323786   130.90987079   179.54431283
 C      5   4   3     1.396477727725   118.63627669   180.49954892
 C      6   5   4     1.417597293123   122.38574511   359.53911875
 C      7   6   5     1.480949732918   120.59063526   181.02616805
 C      8   7   6     1.442801727094   120.13045590   331.05564184
 C      9   8   7     1.368928863821   122.00903144   180.32670833
 C     10   9   8     1.430909838799   120.62851393   359.89833245
 N     11  10   9     1.336816684903   120.34867231   180.08820421
 C     12  11  10     1.342436855787   117.72086984   179.79611339
 C     13  12  11     1.429734566449   119.97897971   180.07015016
 C     14  13  12     1.373561403392   120.31545054   179.89567232
 C     15  14  13     1.429370347893   120.68741636     0.00000000
 C     16  15  14     1.373359011454   120.78801145     0.00000000
 C     17  16  15     1.430831888065   120.33629307     0.00000000
 N     18  17  16     1.340774325647   119.96201449   179.94465269
 C     19  18  17     1.341644768656   117.79549439   180.00466720
 C      8   7   6     1.383962107091   121.68770901   151.33553820
 C      7   6   5     1.412922480604   119.22347139     0.36282269
 C     22   7   6     1.387699649741   118.03243415   359.95990743
 N      2   1   3     1.376459172037   121.78740638   182.82679244
 H      1   2   3     1.014643602235   116.06967544   343.03002676
 H      1   2   3     1.014829492087   118.39712098   199.17833234
 H      5   4   3     1.092526338729   120.54546385     0.71898625
 H      6   5   4     1.091536859359   118.40642223   181.24401151
 H      9   8   7     1.091195339383   118.89475519   358.86328766
 H     10   9   8     1.092166717734   121.46034983   179.30839197
 H     14  13  12     1.092244082129   117.80041261   359.92666567
 H     15  14  13     1.092758334656   120.08466154   180.01367274
 H     16  15  14     1.092870104878   119.19218938   180.01467850
 H     17  16  15     1.092221363613   121.88701347   179.99352937
 H     21   8   7     1.091078861173   121.52858762   358.23202077
 H     22   7   6     1.091040131316   121.15613060   178.36702294
 H     24   2   1     1.014518720365   126.06971905   358.15455756

---------------------------
INTERNAL COORDINATES (A.U.)
---------------------------
 N      0   0   0     0.000000000000     0.00000000     0.00000000
 C      1   0   0     2.563483105811     0.00000000     0.00000000
 N      2   1   0     2.507243921357   125.24123978     0.00000000
 C      3   2   1     2.612306204573   105.09249298   182.69811238
 C      4   3   2     2.648708791312   130.90987079   179.54431283
 C      5   4   3     2.638960457521   118.63627669   180.49954892
 C      6   5   4     2.678870652191   122.38574511   359.53911875
 C      7   6   5     2.798589413319   120.59063526   181.02616805
 C      8   7   6     2.726500129756   120.13045590   331.05564184
 C      9   8   7     2.586900649441   122.00903144   180.32670833
 C     10   9   8     2.704027717664   120.62851393   359.89833245
 N     11  10   9     2.526217425723   120.34867231   180.08820421
 C     12  11  10     2.536838009520   117.72086984   179.79611339
 C     13  12  11     2.701806774790   119.97897971   180.07015016
 C     14  13  12     2.595654880535   120.31545054   179.89567232
 C     15  14  13     2.701118501466   120.68741636     0.00000000
 C     16  15  14     2.595272415202   120.78801145     0.00000000
 C     17  16  15     2.703880412124   120.33629307     0.00000000
 N     18  17  16     2.533696282866   119.96201449   179.94465269
 C     19  18  17     2.535341181769   117.79549439   180.00466720
 C      8   7   6     2.615309362126   121.68770901   151.33553820
 C      7   6   5     2.670036536803   119.22347139     0.36282269
 C     22   7   6     2.622372294149   118.03243415   359.95990743
 N      2   1   3     2.601130869674   121.78740638   182.82679244
 H      1   2   3     1.917398531759   116.06967544   343.03002676
 H      1   2   3     1.917749812670   118.39712098   199.17833234
 H      5   4   3     2.064575574294   120.54546385     0.71898625
 H      6   5   4     2.062705729269   118.40642223   181.24401151
 H      9   8   7     2.062060350045   118.89475519   358.86328766
 H     10   9   8     2.063895989100   121.46034983   179.30839197
 H     14  13  12     2.064042186621   117.80041261   359.92666567
 H     15  14  13     2.065013983059   120.08466154   180.01367274
 H     16  15  14     2.065225198169   119.19218938   180.01467850
 H     17  16  15     2.063999254846   121.88701347   179.99352937
 H     21   8   7     2.061840238127   121.52858762   358.23202077
 H     22   7   6     2.061767049304   121.15613060   178.36702294
 H     24   2   1     1.917162539227   126.06971905   358.15455756

------------------------------------------------------------------------------
                   ___                                                        
                  /   \      - P O W E R E D   B Y -                         
                 /     \                                                     
                 |  |  |   _    _      __       _____    __    __             
                 |  |  |  | |  | |    /  \     |  _  \  |  |  /  |          
                  \  \/   | |  | |   /    \    | | | |  |  | /  /          
                 / \  \   | |__| |  /  /\  \   | |_| |  |  |/  /          
                |  |  |   |  __  | /  /__\  \  |    /   |      \           
                |  |  |   | |  | | |   __   |  |    \   |  |\   \          
                \     /   | |  | | |  |  |  |  | |\  \  |  | \   \       
                 \___/    |_|  |_| |__|  |__|  |_| \__\ |__|  \__/        
                                                                              
                      - O R C A' S   B I G   F R I E N D -                    
                                      &                                       
                       - I N T E G R A L  F E E D E R -                       
                                                                              
 v1 FN, 2020, v2 2021, v3 2022-2024                                           
------------------------------------------------------------------------------


----------------------
SHARK INTEGRAL PACKAGE
----------------------

Number of atoms                             ...     37
Number of basis functions                   ...    401
Number of shells                            ...    183
Maximum angular momentum                    ...      2
Integral batch strategy                     ... SHARK/LIBINT Hybrid
RI-J (if used) integral strategy            ... SPLIT-RIJ (Revised 2003 algorithm where possible)
Printlevel                                  ...      1
Contraction scheme used                     ... SEGMENTED contraction
Prescreening option                         ... SCHWARTZ
   Thresh                                   ... 2.500e-11
   Tcut                                     ... 2.500e-12
   Tpresel                                  ... 2.500e-12 
Coulomb Range Separation                    ... NOT USED
Exchange Range Separation                   ... NOT USED
Multipole approximations                    ... NOT USED
Finite Nucleus Model                        ... NOT USED
CABS basis                                  ... NOT available
Auxiliary Coulomb fitting basis             ... AVAILABLE
   # of basis functions in Aux-J            ...   1319
   # of shells in Aux-J                     ...    425
   Maximum angular momentum in Aux-J        ...      4
Auxiliary J/K fitting basis                 ... NOT available
Auxiliary Correlation fitting basis         ... NOT available
Auxiliary 'external' fitting basis          ... NOT available

Checking pre-screening integrals            ... done (  0.0 sec) Dimension = 183
   => SHARK Basis and OBASIS are compatible. Storing Pre-screening
Shell pair information
Shell pair cut-off parameter TPreSel        ...   2.5e-12
Total number of shell pairs                 ...     16836
Shell pairs after pre-screening             ...     10509
Total number of primitive shell pairs       ...     62832
Primitive shell pairs kept                  ...     25456
          la=0 lb=0:   3067 shell pairs
          la=1 lb=0:   3839 shell pairs
          la=1 lb=1:   1261 shell pairs
          la=2 lb=0:   1323 shell pairs
          la=2 lb=1:    862 shell pairs
          la=2 lb=2:    157 shell pairs

Checking whether 4 symmetric matrices of dimension 401 fit in memory
:Max Core in MB      =   2000.00
 MB in use           =     15.17
 MB left             =   1984.83
 MB needed           =      2.46
 Data fit in memory  = YES
Calculating RI/J V-Matrix + Cholesky decomp.... done (  0.1 sec)
Calculating Nuclear repulsion               ... done (  0.0 sec) ENN=   1739.295733021478 Eh

Diagonalization of the overlap matrix:
Smallest eigenvalue                        ... 2.165e-04
Time for diagonalization                   ...    0.013 sec
Threshold for overlap eigenvalues          ... 1.000e-07
Number of eigenvalues below threshold      ... 0
Time for construction of square roots      ...    0.009 sec
Total time needed                          ...    0.023 sec

-------------------
DFT GRID GENERATION
-------------------

General Integration Accuracy     IntAcc      ... 4.388
Radial Grid Type                 RadialGrid  ... OptM3 with GC (2021)
Angular Grid (max. ang.)         AngularGrid ... 4 (Lebedev-302)
Angular grid pruning method      GridPruning ... 4 (adaptive)
Weight generation scheme         WeightScheme... mBecke (2022)
Basis function cutoff            BFCut       ... 1.0000e-11
Integration weight cutoff        WCut        ... 1.0000e-14
Partially contracted basis set               ... off
Rotationally invariant grid construction     ... off
Angular grids for H and He will be reduced by one unit

Total number of grid points                  ...   185210
Total number of batches                      ...     2912
Average number of points per batch           ...       63
Average number of grid points per atom       ...     5006

--------------------
COSX GRID GENERATION
--------------------

GRIDX 1
-------
General Integration Accuracy     IntAcc      ... 3.816
Radial Grid Type                 RadialGrid  ... OptM3 with GC (2021)
Angular Grid (max. ang.)         AngularGrid ... 1 (Lebedev-50)
Angular grid pruning method      GridPruning ... 4 (adaptive)
Weight generation scheme         WeightScheme... mBecke (2022)
Basis function cutoff            BFCut       ... 1.0000e-11
Integration weight cutoff        WCut        ... 1.0000e-14
Partially contracted basis set               ... on
Rotationally invariant grid construction     ... off
Angular grids for H and He will be reduced by one unit

Total number of grid points                  ...    23522
Total number of batches                      ...      201
Average number of points per batch           ...      117
Average number of grid points per atom       ...      636
UseSFitting                                  ... on

GRIDX 2
-------
General Integration Accuracy     IntAcc      ... 4.020
Radial Grid Type                 RadialGrid  ... OptM3 with GC (2021)
Angular Grid (max. ang.)         AngularGrid ... 2 (Lebedev-110)
Angular grid pruning method      GridPruning ... 4 (adaptive)
Weight generation scheme         WeightScheme... mBecke (2022)
Basis function cutoff            BFCut       ... 1.0000e-11
Integration weight cutoff        WCut        ... 1.0000e-14
Partially contracted basis set               ... on
Rotationally invariant grid construction     ... off
Angular grids for H and He will be reduced by one unit

Total number of grid points                  ...    52156
Total number of batches                      ...      426
Average number of points per batch           ...      122
Average number of grid points per atom       ...     1410
UseSFitting                                  ... on

GRIDX 3
-------
General Integration Accuracy     IntAcc      ... 4.338
Radial Grid Type                 RadialGrid  ... OptM3 with GC (2021)
Angular Grid (max. ang.)         AngularGrid ... 3 (Lebedev-194)
Angular grid pruning method      GridPruning ... 4 (adaptive)
Weight generation scheme         WeightScheme... mBecke (2022)
Basis function cutoff            BFCut       ... 1.0000e-11
Integration weight cutoff        WCut        ... 1.0000e-14
Partially contracted basis set               ... on
Rotationally invariant grid construction     ... off
Angular grids for H and He will be reduced by one unit

Total number of grid points                  ...   114464
Total number of batches                      ...      914
Average number of points per batch           ...      125
Average number of grid points per atom       ...     3094
UseSFitting                                  ... on
Grids setup in   4.6 sec
Initializing property integral containers    ... done (  0.0 sec)

SHARK setup successfully completed in   5.0 seconds

Maximum memory used throughout the entire STARTUP-calculation: 77.0 MB
Occupation numbers will be reassigned to an Aufbau configuration
             **** ENERGY FILE WAS UPDATED (C:\Users\jabreumiranda\Radioprotection_Pipeline_Project\06_Quantum_DFT_ORCA\CHEMBL1683055_neutral_opt.en.tmp) ****
Finished Guess after   0.2 sec
Maximum memory used throughout the entire GUESS-calculation: 28.5 MB
--------------------
CPCM SOLVATION MODEL
--------------------
CPCM parameters:
  Epsilon                                         ...      80.1510
  Refrac                                          ...       1.3328
  Rsolv                                           ...       1.3000
  Surface type                                    ... GAUSSIAN VDW
  Discretization scheme                           ... Constant charge density
    Threshold for H atoms                         ...       5.0000 (charges/Ang^2)
    Threshold for non-H atoms                     ...       5.0000 (charges/Ang^2)
  Epsilon function type                           ...         CPCM
Solvent:                                          ... WATER
Radii:
  Scheme                                          ... Element-dependent radii
  Radius for N  used is    3.5149 Bohr (=   1.8600 Ang.)
  Radius for C  used is    3.8550 Bohr (=   2.0400 Ang.)
  Radius for H  used is    2.4944 Bohr (=   1.3200 Ang.)
Calculating surface                               ...        done! (  0.0s)
Cavity surface points                             ...         3367
Cavity Volume                                     ...    2402.5576
Cavity Surface-area                               ...    1210.0403
Calculating surface distance matrix               ...        done! (  0.1s)
Performing Cholesky decomposition & store         ...        done! (  0.4s)
Overall time for CPCM initialization              ...                 0.5s

----------------------------------------D-I-I-S--------------------------------------------
Iteration    Energy (Eh)           Delta-E    RMSDP     MaxDP     DIISErr   Damp  Time(sec)
-------------------------------------------------------------------------------------------
               ***  Starting incremental Fock matrix formation  ***
                              *** Initializing SOSCF ***
---------------------------------------S-O-S-C-F--------------------------------------
Iteration    Energy (Eh)           Delta-E    RMSDP     MaxDP     MaxGrad    Time(sec)
--------------------------------------------------------------------------------------
    1    -1004.3552757869583729     0.00e+00  1.37e-05  1.06e-03  3.20e-05    25.4
               *** Restarting incremental Fock matrix formation ***
    2    -1004.3552780150048420    -2.23e-06  4.33e-06  3.20e-04  3.58e-05    24.8
    3    -1004.3552781884595788    -1.73e-07  2.43e-06  1.04e-04  1.45e-05    12.8
    4    -1004.3552781694884288     1.90e-08  1.51e-06  7.85e-05  1.52e-05    11.8
    5    -1004.3552782190809012    -4.96e-08  3.23e-07  1.80e-05  2.14e-06    11.1
                  *** Gradient check signals convergence ***

               *****************************************************
               *                     SUCCESS                       *
               *           SCF CONVERGED AFTER   5 CYCLES          *
               *****************************************************

Recomputing exchange energy using gridx3       ... done (   38.588 sec)
Old exchange energy                            :    -27.199641016 Eh
New exchange energy                            :    -27.199675720 Eh
Exchange energy change after final integration :     -0.000034705 Eh
Total energy after final integration           :  -1004.355312922 Eh
             **** ENERGY FILE WAS UPDATED (C:\Users\jabreumiranda\Radioprotection_Pipeline_Project\06_Quantum_DFT_ORCA\CHEMBL1683055_neutral_opt.en.tmp) ****

----------------
TOTAL SCF ENERGY
----------------

Total Energy       :      -1004.35531292236180 Eh          -27329.89749 eV

Components:
Nuclear Repulsion  :       1739.29573302147810 Eh           47328.64304 eV
Electronic Energy  :      -2743.61535047104326 Eh          -74657.56920 eV
One Electron Energy:      -4815.73698981457073 Eh         -131042.86558 eV
Two Electron Energy:       2072.12163934352748 Eh           56385.29638 eV
CPCM Dielectric    :         -0.03566076794440 Eh              -0.97038 eV

Virial components:
Potential Energy   :      -1998.53618037395790 Eh          -54382.93424 eV
Kinetic Energy     :        994.18086745159621 Eh           27053.03675 eV
Virial Ratio       :          2.01023399846433

DFT components:
N(Alpha)           :       80.999985193403 electrons
N(Beta)            :       80.999985193403 electrons
N(Total)           :      161.999970386806 electrons
E(X)               :     -108.113181282205 Eh       
E(C)               :       -6.529825861417 Eh       
E(XC)              :     -114.643007143622 Eh       

CPCM Solvation Model Properties:
Surface-charge          :         -0.02717600408099
Corrected charge        :         -0.00000000000000
Outlying charge corr.   :          0.00003722360127 Eh               0.00101 eV
Free-energy (cav+disp)  :  This term is not implemented in the current solvation scheme

---------------
SCF CONVERGENCE
---------------

  Last Energy change         ...    4.9592e-08  Tolerance :   1.0000e-08
  Last MAX-Density change    ...    1.7959e-05  Tolerance :   1.0000e-07
  Last RMS-Density change    ...    3.2288e-07  Tolerance :   5.0000e-09
  Last DIIS Error            ...    6.7510e-04  Tolerance :   5.0000e-07
  Last Orbital Gradient      ...    2.1376e-06  Tolerance :   1.0000e-05
  Last Orbital Rotation      ...    7.2307e-06  Tolerance :   1.0000e-05


Total SCF time: 0 days 0 hours 2 min 13 sec 
Finished LeanSCF after 133.9 sec

Maximum memory used throughout the entire LEANSCF-calculation: 110.4 MB

------------------------------------------------------------------------------
                         ORCA PROPERTY INTEGRAL CALCULATIONS
------------------------------------------------------------------------------

GBWName                                   ... C:\Users\jabreumiranda\Radioprotection_Pipeline_Project\06_Quantum_DFT_ORCA\CHEMBL1683055_neutral_opt.gbw
Number of atoms                           ...     37
Number of basis functions                 ...    401
Max core memory                           ...   2000 MB

Dipole integrals                          ... YES
Quadrupole integrals                      ...  NO
Linear momentum integrals                 ...  NO
Angular momentum integrals                ...  NO
Higher moments length integrals           ...  NO
Higher moments velocity integrals         ...  NO
Kinetic energy integrals                  ...  NO
GIAO right hand sides                     ...  NO
GIAO dipole derivative integrals          ...  NO
SOC integrals                             ...  NO
EPR diamagnetic integrals (GIAO)          ...  NO
EPR gauge integrals                       ...  NO
Field gradient integrals                  ...  NO (   0 nuclei)
Spin-dipole/Fermi contact integrals       ...  NO (   0 nuclei)
Contact density integrals                 ...  NO (   0 nuclei)
Nucleus-orbit integrals                   ...  NO (   0 nuclei)
Geometric perturbations                   ...  NO (  37 nuclei)

Choice of electric origin   ... Center of mass
Position of electric origin ... (  0.0606,  0.0377,  0.0515) 
Choice of magnetic origin   ... GIAO
Position of magnetic origin ... (  0.0000,  0.0000,  0.0000) 

Calculating integrals                     ... Electric Dipole (Length)     done (  0.0 sec)

Property integrals calculated in   0.0 sec

Maximum memory used throughout the entire PROPINT-calculation: 26.9 MB


-------------------------------------------------------------------------------
                          DFT DISPERSION CORRECTION                            
                                                                               
                              DFTD3 V3.1  Rev 1                                
                          USING Becke-Johnson damping                          
-------------------------------------------------------------------------------
-------------------------   ----------------
Dispersion correction           -0.088080078
-------------------------   ----------------


-------------------------   --------------------
FINAL SINGLE POINT ENERGY     -1004.443393000351
-------------------------   --------------------

------------------------------------------------------------------------------
                         ORCA SCF GRADIENT CALCULATION
------------------------------------------------------------------------------

Nuc. rep. gradient        (SHARK) ... done (  0.0 sec)
HCore & Overlap gradient  (SHARK) ... done (  1.0 sec)
Split-RIJ-J gradient      (SHARK) ... done (  6.4 sec)
COSX-gradient                     ... done ( 93.3 sec)
XC gradient                       ... done ( 15.2 sec)
CPCM gradient                     ... done (  5.4 sec)
Dispersion correction             ... done (  0.1 sec)

-------------------
DISPERSION GRADIENT
-------------------

   1   N   :    0.000460644   -0.000208792   -0.000123746
   2   C   :   -0.002619788    0.001889307    0.000907863
   3   N   :    0.000017301   -0.000110976   -0.000022245
   4   C   :    0.001185287   -0.002295353   -0.000769095
   5   C   :    0.000207428    0.000309893    0.000023667
   6   C   :    0.000555572    0.000174198   -0.000084884
   7   C   :    0.000417474   -0.000119526   -0.000108416
   8   C   :   -0.000179065    0.000037014    0.000060588
   9   C   :   -0.000253741    0.000214083    0.000280036
  10   C   :   -0.000073838    0.000347454    0.000361137
  11   C   :   -0.000416457   -0.000156359   -0.000089394
  12   N   :   -0.000136529    0.000235269    0.000239656
  13   C   :    0.000376785    0.000106521    0.000048948
  14   C   :   -0.000426381    0.000150732    0.000198637
  15   C   :   -0.000365546   -0.000007206    0.000042136
  16   C   :   -0.000263151   -0.000206120   -0.000158353
  17   C   :   -0.000162000   -0.000348166   -0.000305128
  18   C   :    0.000334795    0.000143032    0.000090396
  19   N   :    0.000101890   -0.000222846   -0.000227471
  20   C   :   -0.000595671   -0.000079196   -0.000018854
  21   C   :   -0.000120974   -0.000115566   -0.000137145
  22   C   :    0.000132050   -0.000136944   -0.000019323
  23   C   :    0.001842709    0.000174568   -0.000243511
  24   N   :    0.000170272    0.000392720    0.000079282
  25   H   :    0.000207562   -0.000052158   -0.000058950
  26   H   :    0.000169933   -0.000148426   -0.000084440
  27   H   :    0.000127875    0.000293742    0.000048952
  28   H   :    0.000108605    0.000336035    0.000041168
  29   H   :   -0.000018822    0.000242646    0.000265001
  30   H   :   -0.000027442    0.000236052    0.000228578
  31   H   :   -0.000206959    0.000163032    0.000180794
  32   H   :   -0.000278109    0.000012348    0.000048750
  33   H   :   -0.000181653   -0.000169428   -0.000134842
  34   H   :    0.000001076   -0.000233040   -0.000219007
  35   H   :   -0.000040307   -0.000205655   -0.000226661
  36   H   :   -0.000030532   -0.000313293   -0.000041214
  37   H   :   -0.000020294   -0.000329597   -0.000072910

Difference to translation invariance:
           :    0.0000000000    0.0000000000    0.0000000000

Difference to rotation invariance:
           :    0.0000000000    0.0000000000    0.0000000000

Norm of the Dispersion gradient    ...    0.0051815286
RMS gradient                       ...    0.0004918089
MAX gradient                       ...    0.0026197876

------------------
CARTESIAN GRADIENT
------------------

   1   N   :    0.000030524    0.000042990    0.000097399
   2   C   :   -0.000086458    0.000005590   -0.000020140
   3   N   :    0.000033529   -0.000053774    0.000011804
   4   C   :   -0.000009969    0.000037576    0.000008402
   5   C   :    0.000048505   -0.000034867   -0.000007067
   6   C   :   -0.000099375    0.000026832    0.000023301
   7   C   :    0.000162096   -0.000060996   -0.000018020
   8   C   :   -0.000164199    0.000025405    0.000013680
   9   C   :    0.000108665   -0.000010593   -0.000008209
  10   C   :   -0.000046391   -0.000004401    0.000014123
  11   C   :   -0.000045489    0.000008098    0.000012444
  12   N   :    0.000012941   -0.000061644   -0.000050334
  13   C   :    0.000068687    0.000033748    0.000023061
  14   C   :   -0.000032300   -0.000008238   -0.000000840
  15   C   :   -0.000010065    0.000017356    0.000015924
  16   C   :    0.000005336   -0.000018936   -0.000025985
  17   C   :   -0.000017086   -0.000006242   -0.000012405
  18   C   :    0.000051790    0.000005534   -0.000002398
  19   N   :   -0.000011376    0.000057909    0.000044629
  20   C   :   -0.000081696   -0.000038219   -0.000023741
  21   C   :    0.000122450   -0.000010827   -0.000023946
  22   C   :   -0.000098455    0.000005567    0.000011063
  23   C   :    0.000019180    0.000011900    0.000005365
  24   N   :    0.000017818    0.000030862   -0.000007600
  25   H   :    0.000000276   -0.000026574   -0.000069113
  26   H   :    0.000014042    0.000001366   -0.000011250
  27   H   :   -0.000016804    0.000011116    0.000010406
  28   H   :    0.000019282   -0.000001017    0.000005793
  29   H   :   -0.000037247    0.000013887    0.000015797
  30   H   :    0.000052167    0.000015292    0.000013770
  31   H   :   -0.000030545   -0.000012649   -0.000005422
  32   H   :    0.000003905    0.000016800    0.000011021
  33   H   :    0.000018245   -0.000006939   -0.000016146
  34   H   :   -0.000029312   -0.000007253   -0.000012502
  35   H   :    0.000002732    0.000006125   -0.000003079
  36   H   :    0.000020242   -0.000011950   -0.000005582
  37   H   :    0.000004357    0.000001168   -0.000014201

Difference to translation invariance:
           :    0.0000000001    0.0000000000    0.0000000000

Difference to rotation invariance:
           :    0.0004926842   -0.0005143359    0.0002395474

Norm of the Cartesian gradient     ...    0.0004378851
RMS gradient                       ...    0.0000415622
MAX gradient                       ...    0.0001641992

-------
TIMINGS
-------

Total SCF gradient time     ....      121.393 sec

Densities                   ....       0.006 sec  (  0.0%)
One electron gradient       ....       1.047 sec  (  0.9%)
RI-J Coulomb gradient       ....       6.389 sec  (  5.3%)
COSX gradient               ....      93.275 sec  ( 76.8%)
XC gradient                 ....      15.161 sec  ( 12.5%)
CPCM gradient               ....       5.447 sec  (  4.5%)
   A-Matrix (El+Nuc)        ....       0.573 sec  (  0.5%)
   Potential                ....       4.874 sec  (  4.0%)

Maximum memory used throughout the entire SCFGRAD-calculation: 59.4 MB
------------------------------------------------------------------------------
                         ORCA GEOMETRY RELAXATION STEP
------------------------------------------------------------------------------

Reading the OPT-File                    .... done
Getting information on internals        .... done
Copying old internal coords+grads       .... done
Making the new internal coordinates     .... (2022 redundants) done
Validating the new internal coordinates .... (2022 redundants) done
Calculating the B-matrix                .... done
Calculating the G,G- and P matrices     .... done
Transforming gradient to internals      .... done
Projecting the internal gradient        .... done
Number of atoms                         ....  37
Number of internal coordinates          .... 207
Current Energy                          .... -1004.443393000 Eh
Current gradient norm                   ....     0.000437885 Eh/bohr
Maximum allowed component of the step   ....  0.300
Current trust radius                    ....  0.311
Updating the Hessian (BFGS)             .... done
Forming the augmented Hessian           .... done
Diagonalizing the augmented Hessian     .... done
Last element of RFO vector              ....  0.999990117
Lowest eigenvalues of augmented Hessian:
 -0.000000509  0.006821458  0.009216348  0.018949198  0.020779404
Length of the computed step             ....  0.004445899
The final length of the internal step   ....  0.004445899
Converting the step to Cartesian space:
 Initial RMS(Int)=    0.0003090113
Transforming coordinates:
 Iter   0:  RMS(Cart)=    0.0005612639 RMS(Int)=    0.0003090275
done
Storing new coordinates                 .... done
The predicted energy change is          ....    -0.000000254
Previously predicted energy change      ....    -0.000000657
Actually observed energy change         ....    -0.000002642
Ratio of predicted to observed change   ....     4.021947777
New trust radius                        ....     0.207407407

                                .--------------------.
          ----------------------|Geometry convergence|-------------------------
          Item                value                   Tolerance       Converged
          ---------------------------------------------------------------------
          Energy change      -0.0000026419            0.0000050000      YES
          RMS gradient        0.0000195314            0.0001000000      YES
          MAX gradient        0.0000770141            0.0003000000      YES
          RMS step            0.0003090113            0.0020000000      YES
          MAX step            0.0028909108            0.0040000000      YES
          -------------------------------------------------------------------------
          ........................................................
          Max(Bonds)      0.0001      Max(Angles)    0.06
          Max(Dihed)        0.17      Max(Improp)    0.00
          ---------------------------------------------------------------------

                    ***********************HURRAY********************
                    ***        THE OPTIMIZATION HAS CONVERGED     ***
                    *************************************************


    ---------------------------------------------------------------------------
                         Redundant Internal Coordinates

                          --- Optimized Parameters ---  
                            (Angstroem and degrees)

        Definition                    OldVal   dE/dq     Step     FinalVal
    ----------------------------------------------------------------------------
     1. B(C   1,N   0)                1.3565  0.000026 -0.0001    1.3564   
     2. B(N   2,C   1)                1.3268 -0.000031  0.0000    1.3268   
     3. B(C   3,N   2)                1.3824  0.000021 -0.0000    1.3824   
     4. B(C   4,C   3)                1.4016 -0.000012 -0.0000    1.4016   
     5. B(C   5,C   4)                1.3965  0.000029 -0.0000    1.3964   
     6. B(C   6,C   5)                1.4176 -0.000014  0.0000    1.4176   
     7. B(C   7,C   6)                1.4809  0.000057 -0.0000    1.4809   
     8. B(C   8,C   7)                1.4428 -0.000026  0.0001    1.4429   
     9. B(C   9,C   8)                1.3689  0.000013 -0.0000    1.3689   
    10. B(C  10,C   9)                1.4309  0.000044 -0.0001    1.4309   
    11. B(N  11,C  10)                1.3368 -0.000026  0.0000    1.3368   
    12. B(C  12,N  11)                1.3424 -0.000038  0.0000    1.3424   
    13. B(C  13,C  12)                1.4297  0.000058 -0.0001    1.4297   
    14. B(C  14,C  13)                1.3736 -0.000018  0.0000    1.3736   
    15. B(C  15,C  14)                1.4294  0.000032 -0.0000    1.4293   
    16. B(C  16,C  15)                1.3734 -0.000015  0.0000    1.3734   
    17. B(C  17,C  16)                1.4308  0.000050 -0.0000    1.4308   
    18. B(C  17,C  12)                1.4493  0.000001 -0.0000    1.4492   
    19. B(N  18,C  17)                1.3408 -0.000026  0.0000    1.3408   
    20. B(C  19,N  18)                1.3416 -0.000041  0.0000    1.3417   
    21. B(C  19,C  10)                1.4495  0.000019 -0.0001    1.4495   
    22. B(C  20,C  19)                1.4255  0.000077 -0.0001    1.4254   
    23. B(C  20,C   7)                1.3840 -0.000031  0.0000    1.3840   
    24. B(C  21,C   6)                1.4129 -0.000038  0.0001    1.4130   
    25. B(C  22,C  21)                1.3877  0.000023 -0.0000    1.3877   
    26. B(C  22,C   3)                1.4258  0.000010 -0.0000    1.4258   
    27. B(N  23,C  22)                1.3866 -0.000006 -0.0000    1.3866   
    28. B(N  23,C   1)                1.3765 -0.000034  0.0000    1.3765   
    29. B(H  24,N   0)                1.0146  0.000001 -0.0000    1.0146   
    30. B(H  25,N   0)                1.0148  0.000004 -0.0000    1.0148   
    31. B(H  26,C   4)                1.0925  0.000001 -0.0000    1.0925   
    32. B(H  27,C   5)                1.0915 -0.000008  0.0000    1.0915   
    33. B(H  28,C   8)                1.0912 -0.000007  0.0000    1.0912   
    34. B(H  29,C   9)                1.0922  0.000000 -0.0000    1.0922   
    35. B(H  30,C  13)                1.0922  0.000000 -0.0000    1.0922   
    36. B(H  31,C  14)                1.0928 -0.000001 -0.0000    1.0928   
    37. B(H  32,C  15)                1.0929 -0.000001 -0.0000    1.0929   
    38. B(H  33,C  16)                1.0922  0.000000 -0.0000    1.0922   
    39. B(H  34,C  20)                1.0911 -0.000001 -0.0000    1.0911   
    40. B(H  35,C  21)                1.0910 -0.000000 -0.0000    1.0910   
    41. B(H  36,N  23)                1.0145  0.000002 -0.0000    1.0145   
    42. A(C   1,N   0,H  24)          116.07  0.000033    0.02    116.09   
    43. A(H  24,N   0,H  25)          115.41 -0.000042    0.06    115.46   
    44. A(C   1,N   0,H  25)          118.40 -0.000008    0.03    118.42   
    45. A(N   2,C   1,N  23)          112.92  0.000012   -0.00    112.92   
    46. A(N   0,C   1,N  23)          121.79  0.000012   -0.00    121.78   
    47. A(N   0,C   1,N   2)          125.24 -0.000024    0.01    125.25   
    48. A(C   1,N   2,C   3)          105.09  0.000001   -0.00    105.09   
    49. A(N   2,C   3,C  22)          110.32 -0.000016    0.00    110.32   
    50. A(C   4,C   3,C  22)          118.77 -0.000007    0.00    118.77   
    51. A(N   2,C   3,C   4)          130.91  0.000023   -0.01    130.90   
    52. A(C   3,C   4,C   5)          118.64 -0.000002    0.00    118.64   
    53. A(C   5,C   4,H  26)          120.82 -0.000020    0.01    120.82   
    54. A(C   3,C   4,H  26)          120.55  0.000022   -0.01    120.54   
    55. A(C   4,C   5,C   6)          122.39 -0.000019   -0.00    122.39   
    56. A(C   4,C   5,H  27)          118.41 -0.000009    0.02    118.42   
    57. A(C   6,C   5,H  27)          119.19  0.000027   -0.02    119.17   
    58. A(C   5,C   6,C   7)          120.59 -0.000053    0.01    120.60   
    59. A(C   5,C   6,C  21)          119.22  0.000044   -0.00    119.22   
    60. A(C   7,C   6,C  21)          120.18  0.000009   -0.01    120.18   
    61. A(C   8,C   7,C  20)          118.18  0.000049   -0.00    118.18   
    62. A(C   6,C   7,C  20)          121.69 -0.000018    0.00    121.69   
    63. A(C   6,C   7,C   8)          120.13 -0.000032   -0.00    120.13   
    64. A(C   7,C   8,H  28)          118.89  0.000048   -0.02    118.88   
    65. A(C   9,C   8,H  28)          119.08 -0.000036    0.02    119.10   
    66. A(C   7,C   8,C   9)          122.01 -0.000012   -0.00    122.01   
    67. A(C  10,C   9,H  29)          117.91  0.000059   -0.01    117.90   
    68. A(C   8,C   9,H  29)          121.46 -0.000060    0.01    121.48   
    69. A(C   8,C   9,C  10)          120.63  0.000001   -0.00    120.63   
    70. A(N  11,C  10,C  19)          121.44 -0.000022    0.00    121.44   
    71. A(C   9,C  10,C  19)          118.21 -0.000006    0.00    118.22   
    72. A(C   9,C  10,N  11)          120.35  0.000028   -0.01    120.34   
    73. A(C  10,N  11,C  12)          117.72  0.000028    0.00    117.72   
    74. A(N  11,C  12,C  13)          119.98  0.000019   -0.00    119.98   
    75. A(C  13,C  12,C  17)          119.04 -0.000011    0.00    119.04   
    76. A(N  11,C  12,C  17)          120.98 -0.000008   -0.00    120.98   
    77. A(C  14,C  13,H  30)          121.88 -0.000038    0.01    121.89   
    78. A(C  12,C  13,C  14)          120.32  0.000009   -0.00    120.31   
    79. A(C  12,C  13,H  30)          117.80  0.000028   -0.01    117.80   
    80. A(C  13,C  14,C  15)          120.69  0.000001   -0.00    120.69   
    81. A(C  13,C  14,H  31)          120.08 -0.000024    0.00    120.09   
    82. A(C  15,C  14,H  31)          119.23  0.000024   -0.00    119.22   
    83. A(C  16,C  15,H  32)          120.02 -0.000022    0.00    120.02   
    84. A(C  14,C  15,H  32)          119.19  0.000024   -0.00    119.19   
    85. A(C  14,C  15,C  16)          120.79 -0.000002    0.00    120.79   
    86. A(C  15,C  16,H  33)          121.89 -0.000038    0.01    121.89   
    87. A(C  17,C  16,H  33)          117.78  0.000029   -0.01    117.77   
    88. A(C  15,C  16,C  17)          120.34  0.000009   -0.00    120.33   
    89. A(C  16,C  17,N  18)          119.96  0.000022   -0.00    119.96   
    90. A(C  12,C  17,N  18)          121.20 -0.000016   -0.00    121.20   
    91. A(C  12,C  17,C  16)          118.84 -0.000006    0.00    118.84   
    92. A(C  17,N  18,C  19)          117.80  0.000026    0.00    117.80   
    93. A(N  18,C  19,C  20)          119.89  0.000014    0.00    119.89   
    94. A(C  10,C  19,C  20)          119.25 -0.000005    0.00    119.25   
    95. A(C  10,C  19,N  18)          120.86 -0.000009   -0.00    120.86   
    96. A(C  19,C  20,H  34)          116.74  0.000017    0.01    116.75   
    97. A(C   7,C  20,H  34)          121.53  0.000010   -0.01    121.52   
    98. A(C   7,C  20,C  19)          121.72 -0.000027    0.00    121.72   
    99. A(C   6,C  21,H  35)          121.16  0.000042   -0.02    121.14   
   100. A(C   6,C  21,C  22)          118.03 -0.000035    0.00    118.04   
   101. A(C  22,C  21,H  35)          120.79 -0.000007    0.01    120.80   
   102. A(C  21,C  22,N  23)          132.56 -0.000013    0.00    132.56   
   103. A(C   3,C  22,N  23)          104.49 -0.000005    0.00    104.49   
   104. A(C   3,C  22,C  21)          122.95  0.000018   -0.00    122.95   
   105. A(C   1,N  23,C  22)          107.18  0.000008    0.00    107.18   
   106. A(C  22,N  23,H  36)          126.75  0.000002   -0.00    126.75   
   107. A(C   1,N  23,H  36)          126.07 -0.000010    0.00    126.07   
   108. D(N   2,C   1,N   0,H  24)    -16.97 -0.000049    0.17    -16.80   
   109. D(N  23,C   1,N   0,H  25)     22.01 -0.000003   -0.04     21.97   
   110. D(N  23,C   1,N   0,H  24)    165.86 -0.000045    0.15    166.00   
   111. D(N   2,C   1,N   0,H  25)   -160.82 -0.000007   -0.02   -160.84   
   112. D(C   3,N   2,C   1,N   0)   -177.30  0.000004   -0.02   -177.32   
   113. D(C   3,N   2,C   1,N  23)      0.09  0.000000   -0.00      0.09   
   114. D(C   4,C   3,N   2,C   1)    179.54 -0.000001    0.00    179.55   
   115. D(C  22,C   3,N   2,C   1)     -0.21  0.000000   -0.00     -0.21   
   116. D(H  26,C   4,C   3,N   2)      0.72  0.000002   -0.01      0.71   
   117. D(H  26,C   4,C   3,C  22)   -179.54  0.000001   -0.00   -179.54   
   118. D(C   5,C   4,C   3,C  22)      0.24 -0.000000    0.00      0.24   
   119. D(C   5,C   4,C   3,N   2)   -179.50  0.000001   -0.00   -179.50   
   120. D(H  27,C   5,C   4,C   3)   -178.76 -0.000001    0.01   -178.75   
   121. D(C   6,C   5,C   4,C   3)     -0.46  0.000000    0.00     -0.46   
   122. D(C   6,C   5,C   4,H  26)    179.32 -0.000001    0.00    179.32   
   123. D(H  27,C   5,C   4,H  26)      1.02 -0.000002    0.01      1.03   
   124. D(C  21,C   6,C   5,H  27)    178.65 -0.000000   -0.01    178.64   
   125. D(C  21,C   6,C   5,C   4)      0.36 -0.000001   -0.00      0.36   
   126. D(C   7,C   6,C   5,H  27)     -0.69  0.000002   -0.01     -0.70   
   127. D(C   7,C   6,C   5,C   4)   -178.97  0.000001   -0.00   -178.98   
   128. D(C  20,C   7,C   6,C  21)    -27.99  0.000001    0.02    -27.98   
   129. D(C   8,C   7,C   6,C  21)    151.73 -0.000002    0.03    151.75   
   130. D(C  20,C   7,C   6,C   5)    151.34 -0.000000    0.02    151.36   
   131. D(C   8,C   7,C   6,C   5)    -28.94 -0.000004    0.03    -28.91   
   132. D(H  28,C   8,C   7,C  20)    178.59  0.000004   -0.01    178.58   
   133. D(H  28,C   8,C   7,C   6)     -1.14  0.000007   -0.02     -1.16   
   134. D(C   9,C   8,C   7,C  20)      0.06  0.000004   -0.01      0.05   
   135. D(C   9,C   8,C   7,C   6)   -179.67  0.000007   -0.02   -179.69   
   136. D(H  29,C   9,C   8,C   7)    179.31 -0.000000    0.00    179.31   
   137. D(C  10,C   9,C   8,H  28)   -178.64 -0.000002    0.01   -178.63   
   138. D(C  10,C   9,C   8,C   7)     -0.10 -0.000001    0.00     -0.10   
   139. D(H  29,C   9,C   8,H  28)      0.77 -0.000002    0.01      0.78   
   140. D(C  19,C  10,C   9,H  29)   -179.28 -0.000002    0.00   -179.27   
   141. D(C  19,C  10,C   9,C   8)      0.15 -0.000002    0.00      0.16   
   142. D(N  11,C  10,C   9,H  29)      0.66 -0.000003    0.00      0.66   
   143. D(N  11,C  10,C   9,C   8)   -179.91 -0.000003    0.00   -179.91   
   144. D(C  12,N  11,C  10,C  19)     -0.27 -0.000000   -0.00     -0.27   
   145. D(C  12,N  11,C  10,C   9)    179.80  0.000000   -0.00    179.79   
   146. D(C  17,C  12,N  11,C  10)      0.02 -0.000001    0.00      0.02   
   147. D(C  13,C  12,N  11,C  10)   -179.93 -0.000001    0.00   -179.93   
   148. D(H  30,C  13,C  12,C  17)    179.98  0.000000   -0.00    179.98   
   149. D(H  30,C  13,C  12,N  11)     -0.07  0.000000   -0.00     -0.08   
   150. D(C  14,C  13,C  12,C  17)     -0.05  0.000000   -0.00     -0.05   
   151. D(C  14,C  13,C  12,N  11)    179.90 -0.000000   -0.00    179.89   
   152. D(H  31,C  14,C  13,H  30)     -0.02 -0.000000   -0.00     -0.02   
   153. D(H  31,C  14,C  13,C  12)   -179.99  0.000000   -0.00   -179.99   
   154. D(C  15,C  14,C  13,H  30)    179.98 -0.000000    0.00    179.98   
   155. D(C  15,C  14,C  13,C  12)      0.01 -0.000000    0.00      0.01   
   156. D(H  32,C  15,C  14,H  31)      0.01 -0.000001    0.00      0.02   
   157. D(H  32,C  15,C  14,C  13)   -179.99 -0.000001    0.00   -179.98   
   158. D(C  16,C  15,C  14,H  31)   -179.98 -0.000001    0.00   -179.98   
   159. D(C  16,C  15,C  14,C  13)      0.02 -0.000000    0.00      0.02   
   160. D(H  33,C  16,C  15,H  32)     -0.00  0.000000   -0.00     -0.00   
   161. D(H  33,C  16,C  15,C  14)    179.99 -0.000000    0.00    179.99   
   162. D(C  17,C  16,C  15,H  32)    180.00  0.000001   -0.00    180.00   
   163. D(C  17,C  16,C  15,C  14)     -0.01  0.000001   -0.00     -0.01   
   164. D(C  12,C  17,C  16,H  33)    179.97  0.000000   -0.00    179.96   
   165. D(C  12,C  17,C  16,C  15)     -0.04 -0.000000   -0.00     -0.04   
   166. D(N  18,C  17,C  12,C  13)   -179.92  0.000001    0.00   -179.91   
   167. D(N  18,C  17,C  12,N  11)      0.14  0.000001    0.00      0.14   
   168. D(C  16,C  17,C  12,C  13)      0.06  0.000000    0.00      0.07   
   169. D(N  18,C  17,C  16,C  15)    179.94 -0.000001    0.00    179.95   
   170. D(C  16,C  17,C  12,N  11)   -179.88  0.000000    0.00   -179.88   
   171. D(N  18,C  17,C  16,H  33)     -0.05 -0.000000   -0.00     -0.06   
   172. D(C  19,N  18,C  17,C  16)   -180.00  0.000002   -0.00   -180.00   
   173. D(C  19,N  18,C  17,C  12)     -0.02  0.000001   -0.00     -0.02   
   174. D(C  20,C  19,N  18,C  17)   -179.74 -0.000004    0.01   -179.73   
   175. D(C  10,C  19,N  18,C  17)     -0.24 -0.000002    0.00     -0.23   
   176. D(C  20,C  19,C  10,N  11)    179.90  0.000004   -0.01    179.90   
   177. D(C  20,C  19,C  10,C   9)     -0.16  0.000003   -0.00     -0.17   
   178. D(N  18,C  19,C  10,N  11)      0.40  0.000002   -0.00      0.40   
   179. D(N  18,C  19,C  10,C   9)   -179.67  0.000002   -0.00   -179.67   
   180. D(H  34,C  20,C  19,N  18)      0.99  0.000000    0.00      0.99   
   181. D(H  34,C  20,C  19,C  10)   -178.51 -0.000001    0.01   -178.51   
   182. D(C   7,C  20,C  19,N  18)    179.63  0.000001   -0.00    179.63   
   183. D(C   7,C  20,C  19,C  10)      0.13 -0.000000   -0.00      0.12   
   184. D(H  34,C  20,C   7,C   8)    178.51 -0.000002    0.00    178.51   
   185. D(H  34,C  20,C   7,C   6)     -1.77 -0.000005    0.01     -1.76   
   186. D(C  19,C  20,C   7,C   8)     -0.07 -0.000003    0.01     -0.06   
   187. D(C  19,C  20,C   7,C   6)    179.66 -0.000006    0.02    179.67   
   188. D(H  35,C  21,C   6,C   7)     -2.29 -0.000003    0.00     -2.29   
   189. D(H  35,C  21,C   6,C   5)    178.37 -0.000001   -0.00    178.37   
   190. D(C  22,C  21,C   6,C   7)    179.30 -0.000001    0.00    179.30   
   191. D(C  22,C  21,C   6,C   5)     -0.04  0.000001   -0.00     -0.04   
   192. D(N  23,C  22,C  21,H  35)      0.90  0.000001   -0.00      0.90   
   193. D(N  23,C  22,C  21,C   6)    179.32 -0.000000   -0.00    179.32   
   194. D(C   3,C  22,C  21,H  35)   -178.59  0.000000    0.00   -178.58   
   195. D(C   3,C  22,C  21,C   6)     -0.17 -0.000001    0.00     -0.17   
   196. D(N  23,C  22,C   3,C   4)   -179.54  0.000000    0.00   -179.54   
   197. D(N  23,C  22,C   3,N   2)      0.25 -0.000001    0.00      0.26   
   198. D(C  21,C  22,C   3,C   4)      0.07  0.000001   -0.00      0.07   
   199. D(C  21,C  22,C   3,N   2)    179.86 -0.000000    0.00    179.86   
   200. D(H  36,N  23,C  22,C  21)     -0.35  0.000002    0.01     -0.34   
   201. D(H  36,N  23,C  22,C   3)    179.21  0.000003    0.00    179.22   
   202. D(C   1,N  23,C  22,C  21)   -179.75 -0.000000   -0.00   -179.75   
   203. D(C   1,N  23,C  22,C   3)     -0.19  0.000001   -0.01     -0.19   
   204. D(H  36,N  23,C   1,N   2)   -179.34 -0.000003   -0.01   -179.34   
   205. D(H  36,N  23,C   1,N   0)     -1.85 -0.000007    0.01     -1.84   
   206. D(C  22,N  23,C   1,N   2)      0.07 -0.000001    0.00      0.07   
   207. D(C  22,N  23,C   1,N   0)    177.56 -0.000005    0.02    177.58   
    ----------------------------------------------------------------------------

Geometry step timings:
Preparation and reading OPT file:      0.001 s ( 7.692 %)
Internal coordinates            :      0.000 s ( 0.000 %)
B/P matrices and projection     :      0.004 s (30.769 %)
Hessian update/contruction      :      0.003 s (23.077 %)
Making the step                 :      0.002 s (15.385 %)
Converting the step to Cartesian:      0.000 s ( 0.000 %)
Storing new data                :      0.001 s ( 7.692 %)
Checking convergence            :      0.000 s ( 0.000 %)
Final printing                  :      0.002 s (15.385 %)
Total time                      :      0.013 s
                 *******************************************************
                 *** FINAL ENERGY EVALUATION AT THE STATIONARY POINT ***
                 ***               (AFTER   12 CYCLES)               ***
                 *******************************************************
---------------------------------
CARTESIAN COORDINATES (ANGSTROEM)
---------------------------------
  N      7.080433   -1.696409   -1.207762
  C      5.982065   -0.965454   -0.892825
  N      5.985069    0.322301   -0.573336
  C      4.669146    0.622031   -0.274322
  C      4.071294    1.821974    0.134641
  C      2.696809    1.834951    0.381001
  C      1.886211    0.682704    0.223133
  C      0.428063    0.746671    0.473765
  C     -0.102459    1.692692    1.425309
  C     -1.442423    1.780419    1.691245
  C     -2.375625    0.925861    1.023251
  N     -3.683174    1.017618    1.285945
  C     -4.512080    0.193244    0.626031
  C     -5.919844    0.251261    0.868575
  C     -6.774446   -0.587494    0.195620
  C     -6.273379   -1.529727   -0.755236
  C     -4.927871   -1.617221   -1.016228
  C     -4.002989   -0.762433   -0.337206
  N     -2.690875   -0.854986   -0.596970
  C     -1.862558   -0.032536    0.064494
  C     -0.459646   -0.088926   -0.181389
  C      2.483236   -0.529165   -0.190966
  C      3.850588   -0.535252   -0.427470
  N      4.729716   -1.532330   -0.822055
  H      7.912498   -1.169295   -1.451194
  H      6.952561   -2.567449   -1.712490
  H      4.670001    2.728019    0.253977
  H      2.231290    2.776124    0.679229
  H      0.589363    2.340920    1.965580
  H     -1.833472    2.492243    2.421457
  H     -6.281313    0.978661    1.598797
  H     -7.849838   -0.539849    0.383718
  H     -6.975319   -2.185102   -1.276895
  H     -4.525409   -2.330442   -1.738921
  H     -0.120572   -0.807751   -0.928892
  H      1.893823   -1.441144   -0.296963
  H      4.501126   -2.501828   -1.014550

----------------------------
CARTESIAN COORDINATES (A.U.)
----------------------------
  NO LB      ZA    FRAG     MASS         X           Y           Z
   0 N     7.0000    0    14.007   13.380079   -3.205749   -2.282339
   1 C     6.0000    0    12.011   11.304465   -1.824444   -1.687195
   2 N     7.0000    0    14.007   11.310141    0.609060   -1.083448
   3 C     6.0000    0    12.011    8.823408    1.175469   -0.518393
   4 C     6.0000    0    12.011    7.693631    3.443033    0.254435
   5 C     6.0000    0    12.011    5.096230    3.467554    0.719988
   6 C     6.0000    0    12.011    3.564423    1.290125    0.421661
   7 C     6.0000    0    12.011    0.808923    1.411003    0.895287
   8 C     6.0000    0    12.011   -0.193619    3.198725    2.693445
   9 C     6.0000    0    12.011   -2.725784    3.364504    3.195989
  10 C     6.0000    0    12.011   -4.489280    1.749624    1.933664
  11 N     7.0000    0    14.007   -6.960190    1.923020    2.430083
  12 C     6.0000    0    12.011   -8.526595    0.365178    1.183027
  13 C     6.0000    0    12.011  -11.186883    0.474815    1.641369
  14 C     6.0000    0    12.011  -12.801849   -1.110202    0.369668
  15 C     6.0000    0    12.011  -11.854968   -2.890764   -1.427190
  16 C     6.0000    0    12.011   -9.312326   -3.056105   -1.920394
  17 C     6.0000    0    12.011   -7.564554   -1.440790   -0.637226
  18 N     7.0000    0    14.007   -5.085017   -1.615690   -1.128110
  19 C     6.0000    0    12.011   -3.519725   -0.061485    0.121877
  20 C     6.0000    0    12.011   -0.868605   -0.168046   -0.342776
  21 C     6.0000    0    12.011    4.692635   -0.999978   -0.360874
  22 C     6.0000    0    12.011    7.276557   -1.011479   -0.807800
  23 N     7.0000    0    14.007    8.937867   -2.895684   -1.553459
  24 H     1.0000    0     1.008   14.952455   -2.209647   -2.742360
  25 H     1.0000    0     1.008   13.138437   -4.851775   -3.236137
  26 H     1.0000    0     1.008    8.825024    5.155208    0.479947
  27 H     1.0000    0     1.008    4.216526    5.246114    1.283556
  28 H     1.0000    0     1.008    1.113734    4.423698    3.714409
  29 H     1.0000    0     1.008   -3.464761    4.709656    4.575890
  30 H     1.0000    0     1.008  -11.869961    1.849401    3.021289
  31 H     1.0000    0     1.008  -14.834044   -1.020167    0.725122
  32 H     1.0000    0     1.008  -13.181442   -4.129244   -2.412982
  33 H     1.0000    0     1.008   -8.551784   -4.403897   -3.286084
  34 H     1.0000    0     1.008   -0.227849   -1.526428   -1.755352
  35 H     1.0000    0     1.008    3.578806   -2.723367   -0.561179
  36 H     1.0000    0     1.008    8.505895   -4.727771   -1.917221

--------------------------------
INTERNAL COORDINATES (ANGSTROEM)
--------------------------------
 N      0   0   0     0.000000000000     0.00000000     0.00000000
 C      1   0   0     1.356426409844     0.00000000     0.00000000
 N      2   1   0     1.326798925363   125.24685810     0.00000000
 C      3   2   1     1.382352844889   105.09244239   182.68080457
 C      4   3   2     1.401620955690   130.90351287   179.54575706
 C      5   4   3     1.396449628956   118.63742106   180.49536289
 C      6   5   4     1.417625456186   122.38507040   359.54053209
 C      7   6   5     1.480912935194   120.60088564   181.02215201
 C      8   7   6     1.442860588701   120.13028811   331.08666877
 C      9   8   7     1.368912621141   122.00857185   180.31009580
 C     10   9   8     1.430856291659   120.62646114   359.90183908
 N     11  10   9     1.336829237376   120.34343133   180.09186751
 C     12  11  10     1.342447135388   117.72242074   179.79494194
 C     13  12  11     1.429682714431   119.97866304   180.07066723
 C     14  13  12     1.373580866742   120.31391090   179.89343679
 C     15  14  13     1.429335263185   120.68709697     0.00000000
 C     16  15  14     1.373377176641   120.78803550     0.00000000
 C     17  16  15     1.430783016455   120.33471275     0.00000000
 N     18  17  16     1.340778530092   119.96099954   179.94506771
 C     19  18  17     1.341666082314   117.79743471   180.00034730
 C      8   7   6     1.384007854524   121.69193538   151.35830126
 C      7   6   5     1.412991577628   119.21872012     0.36236878
 C     22   7   6     1.387668783700   118.03744767   359.95783217
 N      2   1   3     1.376493873454   121.78490985   182.80896482
 H      1   2   3     1.014613970624   116.09151101   343.19595984
 H      1   2   3     1.014796319580   118.42379313   199.16030494
 H      5   4   3     1.092523542340   120.53783364     0.71313232
 H      6   5   4     1.091537594845   118.42350853   181.25141750
 H      9   8   7     1.091195891415   118.87512972   358.84345097
 H     10   9   8     1.092164467867   121.47534059   179.31144943
 H     14  13  12     1.092242702782   117.79524122   359.92417674
 H     15  14  13     1.092757000270   120.08793795   180.01328155
 H     16  15  14     1.092869478720   119.18929968   180.01710826
 H     17  16  15     1.092219437488   121.89380671   179.99381018
 H     21   8   7     1.091072937885   121.51682262   358.24115143
 H     22   7   6     1.091030424129   121.13916186   178.36556965
 H     24   2   1     1.014512021556   126.07168580   358.16466507

---------------------------
INTERNAL COORDINATES (A.U.)
---------------------------
 N      0   0   0     0.000000000000     0.00000000     0.00000000
 C      1   0   0     2.563274435424     0.00000000     0.00000000
 N      2   1   0     2.507286603717   125.24685810     0.00000000
 C      3   2   1     2.612268297286   105.09244239   182.68080457
 C      4   3   2     2.648679749820   130.90351287   179.54575706
 C      5   4   3     2.638907358542   118.63742106   180.49536289
 C      6   5   4     2.678923872667   122.38507040   359.54053209
 C      7   6   5     2.798519875698   120.60088564   181.02215201
 C      8   7   6     2.726611362074   120.13028811   331.08666877
 C      9   8   7     2.586869955224   122.00857185   180.31009580
 C     10   9   8     2.703926528234   120.62646114   359.90183908
 N     11  10   9     2.526241146459   120.34343133   180.09186751
 C     12  11  10     2.536857435150   117.72242074   179.79494194
 C     13  12  11     2.701708788676   119.97866304   180.07066723
 C     14  13  12     2.595691660937   120.31391090   179.89343679
 C     15  14  13     2.701052200975   120.68709697     0.00000000
 C     16  15  14     2.595306742429   120.78803550     0.00000000
 C     17  16  15     2.703788058165   120.33471275     0.00000000
 N     18  17  16     2.533704228115   119.96099954   179.94506771
 C     19  18  17     2.535381458744   117.79743471   180.00034730
 C      8   7   6     2.615395812246   121.69193538   151.35830126
 C      7   6   5     2.670167111253   119.21872012     0.36236878
 C     22   7   6     2.622313965784   118.03744767   359.95783217
 N      2   1   3     2.601196445848   121.78490985   182.80896482
 H      1   2   3     1.917342536129   116.09151101   343.19595984
 H      1   2   3     1.917687125718   118.42379313   199.16030494
 H      5   4   3     2.064570289884   120.53783364     0.71313232
 H      6   5   4     2.062707119137   118.42350853   181.25141750
 H      9   8   7     2.062061393234   118.87512972   358.84345097
 H     10   9   8     2.063891737469   121.47534059   179.31144943
 H     14  13  12     2.064039580031   117.79524122   359.92417674
 H     15  14  13     2.065011461435   120.08793795   180.01328155
 H     16  15  14     2.065224014903   119.18929968   180.01710826
 H     17  16  15     2.063995614997   121.89380671   179.99381018
 H     21   8   7     2.061829044735   121.51682262   358.24115143
 H     22   7   6     2.061748705380   121.13916186   178.36556965
 H     24   2   1     1.917149880311   126.07168580   358.16466507

---------------------
BASIS SET INFORMATION
---------------------
There are 3 groups of distinct atoms

 Group   1 Type N   : 7s4p1d contracted to 3s2p1d pattern {511/31/1}
 Group   2 Type C   : 7s4p1d contracted to 3s2p1d pattern {511/31/1}
 Group   3 Type H   : 4s1p contracted to 2s1p pattern {31/1}

Atom   0N    basis set group =>   1
Atom   1C    basis set group =>   2
Atom   2N    basis set group =>   1
Atom   3C    basis set group =>   2
Atom   4C    basis set group =>   2
Atom   5C    basis set group =>   2
Atom   6C    basis set group =>   2
Atom   7C    basis set group =>   2
Atom   8C    basis set group =>   2
Atom   9C    basis set group =>   2
Atom  10C    basis set group =>   2
Atom  11N    basis set group =>   1
Atom  12C    basis set group =>   2
Atom  13C    basis set group =>   2
Atom  14C    basis set group =>   2
Atom  15C    basis set group =>   2
Atom  16C    basis set group =>   2
Atom  17C    basis set group =>   2
Atom  18N    basis set group =>   1
Atom  19C    basis set group =>   2
Atom  20C    basis set group =>   2
Atom  21C    basis set group =>   2
Atom  22C    basis set group =>   2
Atom  23N    basis set group =>   1
Atom  24H    basis set group =>   3
Atom  25H    basis set group =>   3
Atom  26H    basis set group =>   3
Atom  27H    basis set group =>   3
Atom  28H    basis set group =>   3
Atom  29H    basis set group =>   3
Atom  30H    basis set group =>   3
Atom  31H    basis set group =>   3
Atom  32H    basis set group =>   3
Atom  33H    basis set group =>   3
Atom  34H    basis set group =>   3
Atom  35H    basis set group =>   3
Atom  36H    basis set group =>   3
---------------------------------
AUXILIARY/J BASIS SET INFORMATION
---------------------------------
There are 3 groups of distinct atoms

 Group   1 Type N   : 12s5p4d2f1g contracted to 6s4p3d1f1g pattern {711111/2111/211/2/1}
 Group   2 Type C   : 12s5p4d2f1g contracted to 6s4p3d1f1g pattern {711111/2111/211/2/1}
 Group   3 Type H   : 5s2p1d contracted to 3s1p1d pattern {311/2/1}

Atom   0N    basis set group =>   1
Atom   1C    basis set group =>   2
Atom   2N    basis set group =>   1
Atom   3C    basis set group =>   2
Atom   4C    basis set group =>   2
Atom   5C    basis set group =>   2
Atom   6C    basis set group =>   2
Atom   7C    basis set group =>   2
Atom   8C    basis set group =>   2
Atom   9C    basis set group =>   2
Atom  10C    basis set group =>   2
Atom  11N    basis set group =>   1
Atom  12C    basis set group =>   2
Atom  13C    basis set group =>   2
Atom  14C    basis set group =>   2
Atom  15C    basis set group =>   2
Atom  16C    basis set group =>   2
Atom  17C    basis set group =>   2
Atom  18N    basis set group =>   1
Atom  19C    basis set group =>   2
Atom  20C    basis set group =>   2
Atom  21C    basis set group =>   2
Atom  22C    basis set group =>   2
Atom  23N    basis set group =>   1
Atom  24H    basis set group =>   3
Atom  25H    basis set group =>   3
Atom  26H    basis set group =>   3
Atom  27H    basis set group =>   3
Atom  28H    basis set group =>   3
Atom  29H    basis set group =>   3
Atom  30H    basis set group =>   3
Atom  31H    basis set group =>   3
Atom  32H    basis set group =>   3
Atom  33H    basis set group =>   3
Atom  34H    basis set group =>   3
Atom  35H    basis set group =>   3
Atom  36H    basis set group =>   3
------------------------------------------------------------------------------
                             ORCA STARTUP CALCULATIONS
                           -- RI-GTO INTEGRALS CHOSEN --
------------------------------------------------------------------------------
------------------------------------------------------------------------------
                   ___                                                        
                  /   \      - P O W E R E D   B Y -                         
                 /     \                                                     
                 |  |  |   _    _      __       _____    __    __             
                 |  |  |  | |  | |    /  \     |  _  \  |  |  /  |          
                  \  \/   | |  | |   /    \    | | | |  |  | /  /          
                 / \  \   | |__| |  /  /\  \   | |_| |  |  |/  /          
                |  |  |   |  __  | /  /__\  \  |    /   |      \           
                |  |  |   | |  | | |   __   |  |    \   |  |\   \          
                \     /   | |  | | |  |  |  |  | |\  \  |  | \   \       
                 \___/    |_|  |_| |__|  |__|  |_| \__\ |__|  \__/        
                                                                              
                      - O R C A' S   B I G   F R I E N D -                    
                                      &                                       
                       - I N T E G R A L  F E E D E R -                       
                                                                              
 v1 FN, 2020, v2 2021, v3 2022-2024                                           
------------------------------------------------------------------------------


----------------------
SHARK INTEGRAL PACKAGE
----------------------

Number of atoms                             ...     37
Number of basis functions                   ...    401
Number of shells                            ...    183
Maximum angular momentum                    ...      2
Integral batch strategy                     ... SHARK/LIBINT Hybrid
RI-J (if used) integral strategy            ... SPLIT-RIJ (Revised 2003 algorithm where possible)
Printlevel                                  ...      1
Contraction scheme used                     ... SEGMENTED contraction
Prescreening option                         ... SCHWARTZ
   Thresh                                   ... 2.500e-11
   Tcut                                     ... 2.500e-12
   Tpresel                                  ... 2.500e-12 
Coulomb Range Separation                    ... NOT USED
Exchange Range Separation                   ... NOT USED
Multipole approximations                    ... NOT USED
Finite Nucleus Model                        ... NOT USED
CABS basis                                  ... NOT available
Auxiliary Coulomb fitting basis             ... AVAILABLE
   # of basis functions in Aux-J            ...   1319
   # of shells in Aux-J                     ...    425
   Maximum angular momentum in Aux-J        ...      4
Auxiliary J/K fitting basis                 ... NOT available
Auxiliary Correlation fitting basis         ... NOT available
Auxiliary 'external' fitting basis          ... NOT available

Checking pre-screening integrals            ... done (  0.0 sec) Dimension = 183
   => SHARK Basis and OBASIS are compatible. Storing Pre-screening
Shell pair information
Shell pair cut-off parameter TPreSel        ...   2.5e-12
Total number of shell pairs                 ...     16836
Shell pairs after pre-screening             ...     10509
Total number of primitive shell pairs       ...     62832
Primitive shell pairs kept                  ...     25458
          la=0 lb=0:   3067 shell pairs
          la=1 lb=0:   3839 shell pairs
          la=1 lb=1:   1261 shell pairs
          la=2 lb=0:   1323 shell pairs
          la=2 lb=1:    862 shell pairs
          la=2 lb=2:    157 shell pairs

Checking whether 4 symmetric matrices of dimension 401 fit in memory
:Max Core in MB      =   2000.00
 MB in use           =     15.17
 MB left             =   1984.83
 MB needed           =      2.46
 Data fit in memory  = YES
Calculating RI/J V-Matrix + Cholesky decomp.... done (  0.1 sec)
Calculating Nuclear repulsion               ... done (  0.0 sec) ENN=   1739.308919819281 Eh

Diagonalization of the overlap matrix:
Smallest eigenvalue                        ... 2.164e-04
Time for diagonalization                   ...    0.014 sec
Threshold for overlap eigenvalues          ... 1.000e-07
Number of eigenvalues below threshold      ... 0
Time for construction of square roots      ...    0.010 sec
Total time needed                          ...    0.026 sec

-------------------
DFT GRID GENERATION
-------------------

General Integration Accuracy     IntAcc      ... 4.388
Radial Grid Type                 RadialGrid  ... OptM3 with GC (2021)
Angular Grid (max. ang.)         AngularGrid ... 4 (Lebedev-302)
Angular grid pruning method      GridPruning ... 4 (adaptive)
Weight generation scheme         WeightScheme... mBecke (2022)
Basis function cutoff            BFCut       ... 1.0000e-11
Integration weight cutoff        WCut        ... 1.0000e-14
Partially contracted basis set               ... off
Rotationally invariant grid construction     ... off
Angular grids for H and He will be reduced by one unit

Total number of grid points                  ...   185212
Total number of batches                      ...     2912
Average number of points per batch           ...       63
Average number of grid points per atom       ...     5006

--------------------
COSX GRID GENERATION
--------------------

GRIDX 1
-------
General Integration Accuracy     IntAcc      ... 3.816
Radial Grid Type                 RadialGrid  ... OptM3 with GC (2021)
Angular Grid (max. ang.)         AngularGrid ... 1 (Lebedev-50)
Angular grid pruning method      GridPruning ... 4 (adaptive)
Weight generation scheme         WeightScheme... mBecke (2022)
Basis function cutoff            BFCut       ... 1.0000e-11
Integration weight cutoff        WCut        ... 1.0000e-14
Partially contracted basis set               ... on
Rotationally invariant grid construction     ... off
Angular grids for H and He will be reduced by one unit

Total number of grid points                  ...    23521
Total number of batches                      ...      201
Average number of points per batch           ...      117
Average number of grid points per atom       ...      636
UseSFitting                                  ... on

GRIDX 2
-------
General Integration Accuracy     IntAcc      ... 4.020
Radial Grid Type                 RadialGrid  ... OptM3 with GC (2021)
Angular Grid (max. ang.)         AngularGrid ... 2 (Lebedev-110)
Angular grid pruning method      GridPruning ... 4 (adaptive)
Weight generation scheme         WeightScheme... mBecke (2022)
Basis function cutoff            BFCut       ... 1.0000e-11
Integration weight cutoff        WCut        ... 1.0000e-14
Partially contracted basis set               ... on
Rotationally invariant grid construction     ... off
Angular grids for H and He will be reduced by one unit

Total number of grid points                  ...    52155
Total number of batches                      ...      426
Average number of points per batch           ...      122
Average number of grid points per atom       ...     1410
UseSFitting                                  ... on

GRIDX 3
-------
General Integration Accuracy     IntAcc      ... 4.338
Radial Grid Type                 RadialGrid  ... OptM3 with GC (2021)
Angular Grid (max. ang.)         AngularGrid ... 3 (Lebedev-194)
Angular grid pruning method      GridPruning ... 4 (adaptive)
Weight generation scheme         WeightScheme... mBecke (2022)
Basis function cutoff            BFCut       ... 1.0000e-11
Integration weight cutoff        WCut        ... 1.0000e-14
Partially contracted basis set               ... on
Rotationally invariant grid construction     ... off
Angular grids for H and He will be reduced by one unit

Total number of grid points                  ...   114464
Total number of batches                      ...      914
Average number of points per batch           ...      125
Average number of grid points per atom       ...     3094
UseSFitting                                  ... on
Grids setup in   4.6 sec
Initializing property integral containers    ... done (  0.0 sec)

SHARK setup successfully completed in   5.0 seconds

Maximum memory used throughout the entire STARTUP-calculation: 77.0 MB
-------------------------------------------------------------------------------
                                 ORCA GUESS
                   Start orbitals & Density for SCF / CASSCF
-------------------------------------------------------------------------------

------------
SCF SETTINGS
------------
Hamiltonian:
 Density Functional     Method          .... DFT(GTOs)
 Exchange Functional    Exchange        .... B88
   X-Alpha parameter    XAlpha          ....  0.666667
   Becke's b parameter  XBeta           ....  0.004200
 Correlation Functional Correlation     .... LYP
 LDA part of GGA corr.  LDAOpt          .... VWN-5
 Gradients option       PostSCFGGA      .... off
 Hybrid DFT is turned on
   Fraction HF Exchange ScalHFX         ....  0.200000
   Scaling of DF-GGA-X  ScalDFX         ....  0.720000
   Scaling of DF-GGA-C  ScalDFC         ....  0.810000
   Scaling of DF-LDA-C  ScalLDAC        ....  1.000000
   Perturbative correction              ....  0.000000
   NL short-range parameter             ....  4.800000
 RI-approximation to the Coulomb term is turned on
   Number of AuxJ basis functions       .... 1319
   RIJ-COSX (HFX calculated with COS-X)).... on


General Settings:
 Integral files         IntName         .... C:\Users\jabreumiranda\Radioprotection_Pipeline_Project\06_Quantum_DFT_ORCA\CHEMBL1683055_neutral_opt
 Hartree-Fock type      HFTyp           .... RHF
 Total Charge           Charge          ....    0
 Multiplicity           Mult            ....    1
 Number of Electrons    NEL             ....  162
 Basis Dimension        Dim             ....  401
 Nuclear Repulsion      ENuc            ....   1739.3089198193 Eh

Convergence Acceleration:
 AO-DIIS                CNVDIIS         .... on
   Start iteration      DIISMaxIt       ....    12
   Startup error        DIISStart       ....  0.200000
   # of expansion vecs  DIISMaxEq       ....     5
   Bias factor          DIISBfac        ....   1.050
   Max. coefficient     DIISMaxC        ....  10.000
 MO-DIIS                CNVKDIIS        .... off
 Trust-Rad. Augm. Hess. CNVTRAH         .... auto
   Auto Start mean grad. ratio tolernc. ....  1.125000
   Auto Start start iteration           ....     1
   Auto Start num. interpolation iter.  ....    10
   Max. Number of Micro iterations      ....    24
   Max. Number of Macro iterations      .... Maxiter - #DIIS iter
   Number of Davidson start vectors     ....     2
   Converg. threshold    (grad. norm)   ....   1.000e-05
   Grad. Scal. Fac. for Micro threshold ....   0.100
   Minimum threshold for Micro iter.    ....   1.000e-02
   NR start threshold (gradient norm)   ....   1.000e-04
   Initial trust radius                 ....   0.400
   Minimum AH scaling param. (alpha)    ....   1.000
   Maximum AH scaling param. (alpha)    .... 1000.000
   Quad. conv. algorithm                .... NR
   White noise on init. David. guess    .... on
   Maximum white noise                  ....   0.010
   Pseudo random numbers                .... off
   Inactive MOs                         .... canonical
   Orbital update algorithm             .... Taylor
   Preconditioner                       .... Diag
   Full preconditioner red. dimension   ....   250
 SOSCF                 CNVSOSCF           .... on
   Start iteration     SOSCFMaxIt         ....   150
   Startup grad/error  SOSCFStart         ....  0.003300
   Hessian update      SOSCFHessUp        .... L-BFGS
   Autom. constraints  SOSCFAutoConstrain .... off
 Level Shifting         CNVShift        .... on
   Level shift para.    LevelShift      ....    0.2500
   Turn off err/grad.   ShiftErr        ....    0.0010
 Zerner damping         CNVZerner       .... off
 Static damping         CNVDamp         .... on
   Fraction old density DampFac         ....    0.7000
   Max. Damping (<1)    DampMax         ....    0.9800
   Min. Damping (>=0)   DampMin         ....    0.0000
   Turn off err/grad.   DampErr         ....    0.1000

SCF Procedure:
 Maximum # iterations   MaxIter         ....   125
 SCF integral mode      SCFMode         .... Direct
   Integral package                     .... SHARK and LIBINT hybrid scheme
 Reset frequency        DirectResetFreq ....    20
 Integral Threshold     Thresh          ....  2.500e-11 Eh
 Primitive CutOff       TCut            ....  2.500e-12 Eh

Convergence Tolerance:
 Convergence Check Mode ConvCheckMode   .... Total+1el-Energy
 Convergence forced     ConvForced      .... 0
 Energy Change          TolE            ....  1.000e-08 Eh
 1-El. energy change                    ....  1.000e-05 Eh
 Orbital Gradient       TolG            ....  1.000e-05
 Orbital Rotation angle TolX            ....  1.000e-05
 DIIS Error             TolErr          ....  5.000e-07

---------------------
INITIAL GUESS: MOREAD
---------------------
Guess MOs are being read from file: C:\Users\jabreumiranda\Radioprotection_Pipeline_Project\06_Quantum_DFT_ORCA\CHEMBL1683055_neutral_opt.gbw
Input Geometry matches current geometry (good)
Input basis set matches current basis set (good)
Occupation numbers will be reassigned to an Aufbau configuration
MOs were renormalized
MOs were reorthogonalized (Cholesky)
                      ------------------
                      INITIAL GUESS DONE (   0.1 sec)
                      ------------------
             **** ENERGY FILE WAS UPDATED (C:\Users\jabreumiranda\Radioprotection_Pipeline_Project\06_Quantum_DFT_ORCA\CHEMBL1683055_neutral_opt.en.tmp) ****
Finished Guess after   0.2 sec
Maximum memory used throughout the entire GUESS-calculation: 28.5 MB

-------------------------------------------------------------------------------------------
                                      ORCA LEAN-SCF
                              memory conserving SCF solver
-------------------------------------------------------------------------------------------

--------------------
CPCM SOLVATION MODEL
--------------------
CPCM parameters:
  Epsilon                                         ...      80.1510
  Refrac                                          ...       1.3328
  Rsolv                                           ...       1.3000
  Surface type                                    ... GAUSSIAN VDW
  Discretization scheme                           ... Constant charge density
    Threshold for H atoms                         ...       5.0000 (charges/Ang^2)
    Threshold for non-H atoms                     ...       5.0000 (charges/Ang^2)
  Epsilon function type                           ...         CPCM
Solvent:                                          ... WATER
Radii:
  Scheme                                          ... Element-dependent radii
  Radius for N  used is    3.5149 Bohr (=   1.8600 Ang.)
  Radius for C  used is    3.8550 Bohr (=   2.0400 Ang.)
  Radius for H  used is    2.4944 Bohr (=   1.3200 Ang.)
Calculating surface                               ...        done! (  0.0s)
Cavity surface points                             ...         3367
Cavity Volume                                     ...    2402.5579
Cavity Surface-area                               ...    1210.0355
Calculating surface distance matrix               ...        done! (  0.1s)
Performing Cholesky decomposition & store         ...        done! (  0.4s)
Overall time for CPCM initialization              ...                 0.5s

----------------------------------------D-I-I-S--------------------------------------------
Iteration    Energy (Eh)           Delta-E    RMSDP     MaxDP     DIISErr   Damp  Time(sec)
-------------------------------------------------------------------------------------------
               ***  Starting incremental Fock matrix formation  ***
                              *** Initializing SOSCF ***
---------------------------------------S-O-S-C-F--------------------------------------
Iteration    Energy (Eh)           Delta-E    RMSDP     MaxDP     MaxGrad    Time(sec)
--------------------------------------------------------------------------------------
    1    -1004.3552763918571600     0.00e+00  9.42e-06  7.60e-04  1.70e-05    25.0
               *** Restarting incremental Fock matrix formation ***
    2    -1004.3552774595702886    -1.07e-06  3.19e-06  2.29e-04  2.15e-05    24.9
    3    -1004.3552775605346596    -1.01e-07  1.60e-06  7.95e-05  1.15e-05    12.4
    4    -1004.3552775557589030     4.78e-09  9.35e-07  4.62e-05  1.24e-05    11.1
                 **** Energy Check signals convergence ****

               *****************************************************
               *                     SUCCESS                       *
               *           SCF CONVERGED AFTER   4 CYCLES          *
               *****************************************************

Recomputing exchange energy using gridx3       ... done (   38.820 sec)
Old exchange energy                            :    -27.199673711 Eh
New exchange energy                            :    -27.199704902 Eh
Exchange energy change after final integration :     -0.000031191 Eh
Total energy after final integration           :  -1004.355308762 Eh
             **** ENERGY FILE WAS UPDATED (C:\Users\jabreumiranda\Radioprotection_Pipeline_Project\06_Quantum_DFT_ORCA\CHEMBL1683055_neutral_opt.en.tmp) ****

----------------
TOTAL SCF ENERGY
----------------

Total Energy       :      -1004.35530876181042 Eh          -27329.89738 eV

Components:
Nuclear Repulsion  :       1739.30891981928085 Eh           47329.00187 eV
Electronic Energy  :      -2743.62853776778502 Eh          -74657.92805 eV
One Electron Energy:      -4815.76465444617133 Eh         -131043.61838 eV
Two Electron Energy:       2072.13611667838632 Eh           56385.69033 eV
CPCM Dielectric    :         -0.03565962217146 Eh              -0.97035 eV

Virial components:
Potential Energy   :      -1998.53671678517640 Eh          -54382.94884 eV
Kinetic Energy     :        994.18140802336586 Eh           27053.05146 eV
Virial Ratio       :          2.01023344497929

DFT components:
N(Alpha)           :       80.999985487035 electrons
N(Beta)            :       80.999985487035 electrons
N(Total)           :      161.999970974070 electrons
E(X)               :     -108.113320943807 Eh       
E(C)               :       -6.529840263964 Eh       
E(XC)              :     -114.643161207771 Eh       

CPCM Solvation Model Properties:
Surface-charge          :         -0.02717600650674
Corrected charge        :         -0.00000000000000
Outlying charge corr.   :          0.00003722385031 Eh               0.00101 eV
Free-energy (cav+disp)  :  This term is not implemented in the current solvation scheme

---------------
SCF CONVERGENCE
---------------

  Last Energy change         ...   -4.7758e-09  Tolerance :   1.0000e-08
  Last MAX-Density change    ...    4.6232e-05  Tolerance :   1.0000e-07
  Last RMS-Density change    ...    9.3524e-07  Tolerance :   5.0000e-09
  Last DIIS Error            ...    4.7753e-04  Tolerance :   5.0000e-07
  Last Orbital Gradient      ...    1.2442e-05  Tolerance :   1.0000e-05
  Last Orbital Rotation      ...    1.4960e-05  Tolerance :   1.0000e-05


----------------
ORBITAL ENERGIES
----------------

  NO   OCC          E(Eh)            E(eV) 
   0   2.0000     -14.370841      -391.0505 
   1   2.0000     -14.344018      -390.3206 
   2   2.0000     -14.338241      -390.1634 
   3   2.0000     -14.335964      -390.1014 
   4   2.0000     -14.297991      -389.0681 
   5   2.0000     -10.287493      -279.9369 
   6   2.0000     -10.233966      -278.4804 
   7   2.0000     -10.233933      -278.4795 
   8   2.0000     -10.233693      -278.4729 
   9   2.0000     -10.233291      -278.4620 
  10   2.0000     -10.220490      -278.1137 
  11   2.0000     -10.210262      -277.8354 
  12   2.0000     -10.208856      -277.7971 
  13   2.0000     -10.200708      -277.5754 
  14   2.0000     -10.200643      -277.5736 
  15   2.0000     -10.200140      -277.5599 
  16   2.0000     -10.196627      -277.4643 
  17   2.0000     -10.196225      -277.4534 
  18   2.0000     -10.195801      -277.4419 
  19   2.0000     -10.194906      -277.4175 
  20   2.0000     -10.191314      -277.3198 
  21   2.0000     -10.190517      -277.2981 
  22   2.0000     -10.184858      -277.1441 
  23   2.0000     -10.184016      -277.1212 
  24   2.0000      -1.014657       -27.6102 
  25   2.0000      -0.975150       -26.5352 
  26   2.0000      -0.905741       -24.6465 
  27   2.0000      -0.903190       -24.5770 
  28   2.0000      -0.865919       -23.5629 
  29   2.0000      -0.862073       -23.4582 
  30   2.0000      -0.841666       -22.9029 
  31   2.0000      -0.820330       -22.3223 
  32   2.0000      -0.765055       -20.8182 
  33   2.0000      -0.756447       -20.5840 
  34   2.0000      -0.738599       -20.0983 
  35   2.0000      -0.729920       -19.8621 
  36   2.0000      -0.712667       -19.3927 
  37   2.0000      -0.672171       -18.2907 
  38   2.0000      -0.644715       -17.5436 
  39   2.0000      -0.625404       -17.0181 
  40   2.0000      -0.608410       -16.5557 
  41   2.0000      -0.606843       -16.5131 
  42   2.0000      -0.602859       -16.4046 
  43   2.0000      -0.589377       -16.0378 
  44   2.0000      -0.558534       -15.1985 
  45   2.0000      -0.553656       -15.0658 
  46   2.0000      -0.544470       -14.8158 
  47   2.0000      -0.523164       -14.2360 
  48   2.0000      -0.502543       -13.6749 
  49   2.0000      -0.498038       -13.5523 
  50   2.0000      -0.484680       -13.1888 
  51   2.0000      -0.471359       -12.8263 
  52   2.0000      -0.465999       -12.6805 
  53   2.0000      -0.456383       -12.4188 
  54   2.0000      -0.452944       -12.3252 
  55   2.0000      -0.445786       -12.1305 
  56   2.0000      -0.444093       -12.0844 
  57   2.0000      -0.438135       -11.9223 
  58   2.0000      -0.434584       -11.8256 
  59   2.0000      -0.428840       -11.6693 
  60   2.0000      -0.426411       -11.6032 
  61   2.0000      -0.402004       -10.9391 
  62   2.0000      -0.385249       -10.4832 
  63   2.0000      -0.381375       -10.3777 
  64   2.0000      -0.371628       -10.1125 
  65   2.0000      -0.364898        -9.9294 
  66   2.0000      -0.363252        -9.8846 
  67   2.0000      -0.356585        -9.7032 
  68   2.0000      -0.355737        -9.6801 
  69   2.0000      -0.347723        -9.4620 
  70   2.0000      -0.331139        -9.0107 
  71   2.0000      -0.315217        -8.5775 
  72   2.0000      -0.310940        -8.4611 
  73   2.0000      -0.295934        -8.0528 
  74   2.0000      -0.277605        -7.5540 
  75   2.0000      -0.270140        -7.3509 
  76   2.0000      -0.256420        -6.9775 
  77   2.0000      -0.251243        -6.8367 
  78   2.0000      -0.234317        -6.3761 
  79   2.0000      -0.228364        -6.2141 
  80   2.0000      -0.198091        -5.3903 
  81   0.0000      -0.096940        -2.6379 
  82   0.0000      -0.039879        -1.0852 
  83   0.0000      -0.017673        -0.4809 
  84   0.0000      -0.002739        -0.0745 
  85   0.0000       0.009644         0.2624 
  86   0.0000       0.016475         0.4483 
  87   0.0000       0.054371         1.4795 
  88   0.0000       0.065173         1.7735 
  89   0.0000       0.075408         2.0520 
  90   0.0000       0.076795         2.0897 
  91   0.0000       0.084538         2.3004 
*Only the first 10 virtual orbitals were printed.

                    ********************************
                    * MULLIKEN POPULATION ANALYSIS *
                    ********************************

-----------------------
MULLIKEN ATOMIC CHARGES
-----------------------
   0 N :   -0.044740
   1 C :    0.017505
   2 N :   -0.217374
   3 C :    0.066197
   4 C :   -0.116947
   5 C :   -0.047555
   6 C :    0.071958
   7 C :    0.108401
   8 C :   -0.006088
   9 C :   -0.009693
  10 C :   -0.005871
  11 N :   -0.049520
  12 C :    0.002584
  13 C :   -0.010755
  14 C :    0.021111
  15 C :    0.023076
  16 C :   -0.013099
  17 C :    0.006803
  18 N :   -0.055094
  19 C :    0.024350
  20 C :   -0.092382
  21 C :   -0.154482
  22 C :    0.136308
  23 N :   -0.061176
  24 H :    0.157033
  25 H :    0.162100
  26 H :   -0.024519
  27 H :   -0.006494
  28 H :    0.008048
  29 H :   -0.015784
  30 H :   -0.014659
  31 H :    0.016658
  32 H :    0.017069
  33 H :   -0.015151
  34 H :   -0.027253
  35 H :   -0.013616
  36 H :    0.163050
Sum of atomic charges:   -0.0000000

--------------------------------
MULLIKEN REDUCED ORBITAL CHARGES
--------------------------------
  0 N s       :     3.276853  s :     3.276853
      pz      :     1.567342  p :     3.752417
      px      :     1.078006
      py      :     1.107070
      dz2     :     0.001420  d :     0.015469
      dxz     :     0.002549
      dyz     :     0.003219
      dx2y2   :     0.002571
      dxy     :     0.005710

  1 C s       :     3.054427  s :     3.054427
      pz      :     0.945401  p :     2.824467
      px      :     0.879882
      py      :     0.999184
      dz2     :     0.009417  d :     0.103601
      dxz     :     0.018419
      dyz     :     0.018024
      dx2y2   :     0.024506
      dxy     :     0.033235

  2 N s       :     3.478979  s :     3.478979
      pz      :     1.284501  p :     3.710631
      px      :     1.285828
      py      :     1.140302
      dz2     :     0.003532  d :     0.027764
      dxz     :     0.004038
      dyz     :     0.004837
      dx2y2   :     0.011430
      dxy     :     0.003926

  3 C s       :     3.043187  s :     3.043187
      pz      :     0.994340  p :     2.829226
      px      :     0.928243
      py      :     0.906642
      dz2     :     0.005753  d :     0.061391
      dxz     :     0.012401
      dyz     :     0.006871
      dx2y2   :     0.015475
      dxy     :     0.020891

  4 C s       :     3.350576  s :     3.350576
      pz      :     1.021678  p :     2.732462
      px      :     0.847856
      py      :     0.862928
      dz2     :     0.003382  d :     0.033910
      dxz     :     0.005647
      dyz     :     0.003890
      dx2y2   :     0.009258
      dxy     :     0.011732

  5 C s       :     3.234730  s :     3.234730
      pz      :     1.001619  p :     2.778618
      px      :     0.908773
      py      :     0.868226
      dz2     :     0.002635  d :     0.034206
      dxz     :     0.006587
      dyz     :     0.003536
      dx2y2   :     0.010187
      dxy     :     0.011261

  6 C s       :     3.066146  s :     3.066146
      pz      :     1.037713  p :     2.820763
      px      :     0.899067
      py      :     0.883983
      dz2     :     0.003892  d :     0.041133
      dxz     :     0.005629
      dyz     :     0.006963
      dx2y2   :     0.012772
      dxy     :     0.011878

  7 C s       :     3.073675  s :     3.073675
      pz      :     0.909881  p :     2.775337
      px      :     0.913521
      py      :     0.951935
      dz2     :     0.006902  d :     0.042587
      dxz     :     0.010390
      dyz     :     0.005575
      dx2y2   :     0.010183
      dxy     :     0.009537

  8 C s       :     3.237217  s :     3.237217
      pz      :     0.923669  p :     2.734741
      px      :     0.885751
      py      :     0.925321
      dz2     :     0.004822  d :     0.034131
      dxz     :     0.008577
      dyz     :     0.004370
      dx2y2   :     0.007173
      dxy     :     0.009187

  9 C s       :     3.313104  s :     3.313104
      pz      :     0.896185  p :     2.663359
      px      :     0.865982
      py      :     0.901192
      dz2     :     0.003736  d :     0.033229
      dxz     :     0.008949
      dyz     :     0.003988
      dx2y2   :     0.007010
      dxy     :     0.009546

 10 C s       :     3.040749  s :     3.040749
      pz      :     0.993942  p :     2.905279
      px      :     0.929214
      py      :     0.982123
      dz2     :     0.007964  d :     0.059844
      dxz     :     0.015584
      dyz     :     0.005518
      dx2y2   :     0.014207
      dxy     :     0.016571

 11 N s       :     3.428519  s :     3.428519
      pz      :     1.292939  p :     3.592848
      px      :     1.020384
      py      :     1.279526
      dz2     :     0.004342  d :     0.028152
      dxz     :     0.006932
      dyz     :     0.004130
      dx2y2   :     0.006296
      dxy     :     0.006452

 12 C s       :     3.040730  s :     3.040730
      pz      :     1.005686  p :     2.897380
      px      :     0.886503
      py      :     1.005192
      dz2     :     0.008946  d :     0.059305
      dxz     :     0.012397
      dyz     :     0.008901
      dx2y2   :     0.015376
      dxy     :     0.013686

 13 C s       :     3.307815  s :     3.307815
      pz      :     0.869590  p :     2.669904
      px      :     0.944830
      py      :     0.855485
      dz2     :     0.004699  d :     0.033035
      dxz     :     0.007215
      dyz     :     0.004711
      dx2y2   :     0.009085
      dxy     :     0.007325

 14 C s       :     3.179700  s :     3.179700
      pz      :     0.951954  p :     2.764497
      px      :     0.858403
      py      :     0.954141
      dz2     :     0.006551  d :     0.034692
      dxz     :     0.006566
      dyz     :     0.005605
      dx2y2   :     0.009057
      dxy     :     0.006912

 15 C s       :     3.179626  s :     3.179626
      pz      :     0.930985  p :     2.762510
      px      :     0.913827
      py      :     0.917698
      dz2     :     0.005058  d :     0.034788
      dxz     :     0.008625
      dyz     :     0.004400
      dx2y2   :     0.007483
      dxy     :     0.009222

 16 C s       :     3.307648  s :     3.307648
      pz      :     0.900061  p :     2.672548
      px      :     0.863297
      py      :     0.909190
      dz2     :     0.003711  d :     0.032904
      dxz     :     0.008859
      dyz     :     0.003965
      dx2y2   :     0.006956
      dxy     :     0.009413

 17 C s       :     3.040423  s :     3.040423
      pz      :     0.987828  p :     2.893110
      px      :     0.927965
      py      :     0.977317
      dz2     :     0.008054  d :     0.059664
      dxz     :     0.015566
      dyz     :     0.005540
      dx2y2   :     0.014101
      dxy     :     0.016402

 18 N s       :     3.427991  s :     3.427991
      pz      :     1.296982  p :     3.599201
      px      :     1.018193
      py      :     1.284026
      dz2     :     0.004334  d :     0.027902
      dxz     :     0.006809
      dyz     :     0.004133
      dx2y2   :     0.006269
      dxy     :     0.006357

 19 C s       :     3.031566  s :     3.031566
      pz      :     1.004363  p :     2.884105
      px      :     0.882946
      py      :     0.996795
      dz2     :     0.008876  d :     0.059979
      dxz     :     0.012795
      dyz     :     0.008942
      dx2y2   :     0.015313
      dxy     :     0.014054

 20 C s       :     3.407304  s :     3.407304
      pz      :     0.866717  p :     2.653023
      px      :     0.912521
      py      :     0.873785
      dz2     :     0.004464  d :     0.032054
      dxz     :     0.007169
      dyz     :     0.004595
      dx2y2   :     0.008561
      dxy     :     0.007265

 21 C s       :     3.413080  s :     3.413080
      pz      :     1.019440  p :     2.707532
      px      :     0.909532
      py      :     0.778560
      dz2     :     0.003583  d :     0.033871
      dxz     :     0.006133
      dyz     :     0.003715
      dx2y2   :     0.010625
      dxy     :     0.009814

 22 C s       :     3.013102  s :     3.013102
      pz      :     1.014571  p :     2.792356
      px      :     0.787874
      py      :     0.989910
      dz2     :     0.006213  d :     0.058234
      dxz     :     0.010957
      dyz     :     0.008532
      dx2y2   :     0.012295
      dxy     :     0.020237

 23 N s       :     3.344369  s :     3.344369
      pz      :     1.561672  p :     3.694822
      px      :     1.088002
      py      :     1.045148
      dz2     :     0.002428  d :     0.021985
      dxz     :     0.004179
      dyz     :     0.002434
      dx2y2   :     0.006592
      dxy     :     0.006352

 24 H s       :     0.798371  s :     0.798371
      pz      :     0.011755  p :     0.044597
      px      :     0.020423
      py      :     0.012419

 25 H s       :     0.792910  s :     0.792910
      pz      :     0.015056  p :     0.044990
      px      :     0.007538
      py      :     0.022397

 26 H s       :     1.001597  s :     1.001597
      pz      :     0.004694  p :     0.022921
      px      :     0.006843
      py      :     0.011384

 27 H s       :     0.983062  s :     0.983062
      pz      :     0.005728  p :     0.023432
      px      :     0.005563
      py      :     0.012142

 28 H s       :     0.968607  s :     0.968607
      pz      :     0.006925  p :     0.023345
      px      :     0.008398
      py      :     0.008023

 29 H s       :     0.992854  s :     0.992854
      pz      :     0.009225  p :     0.022930
      px      :     0.004859
      py      :     0.008846

 30 H s       :     0.991765  s :     0.991765
      pz      :     0.009264  p :     0.022894
      px      :     0.004466
      py      :     0.009164

 31 H s       :     0.960469  s :     0.960469
      pz      :     0.004096  p :     0.022873
      px      :     0.015080
      py      :     0.003697

 32 H s       :     0.960079  s :     0.960079
      pz      :     0.006496  p :     0.022852
      px      :     0.008310
      py      :     0.008045

 33 H s       :     0.992258  s :     0.992258
      pz      :     0.009113  p :     0.022892
      px      :     0.004897
      py      :     0.008882

 34 H s       :     1.003970  s :     1.003970
      pz      :     0.009661  p :     0.023282
      px      :     0.004456
      py      :     0.009165

 35 H s       :     0.990187  s :     0.990187
      pz      :     0.004849  p :     0.023429
      px      :     0.006921
      py      :     0.011659

 36 H s       :     0.793605  s :     0.793605
      pz      :     0.010935  p :     0.043345
      px      :     0.006570
      py      :     0.025840



                     *******************************
                     * LOEWDIN POPULATION ANALYSIS *
                     *******************************

----------------------
LOEWDIN ATOMIC CHARGES
----------------------
   0 N :   -0.003691
   1 C :    0.069564
   2 N :   -0.237362
   3 C :   -0.025192
   4 C :   -0.054956
   5 C :   -0.041200
   6 C :   -0.048759
   7 C :   -0.006068
   8 C :   -0.005244
   9 C :   -0.021564
  10 C :   -0.011507
  11 N :   -0.074214
  12 C :   -0.013386
  13 C :   -0.023251
  14 C :   -0.016427
  15 C :   -0.013929
  16 C :   -0.025090
  17 C :   -0.009947
  18 N :   -0.081070
  19 C :   -0.008227
  20 C :   -0.033131
  21 C :   -0.046841
  22 C :   -0.002163
  23 N :    0.047098
  24 H :    0.100943
  25 H :    0.103271
  26 H :    0.032439
  27 H :    0.031405
  28 H :    0.039441
  29 H :    0.038237
  30 H :    0.037150
  31 H :    0.040915
  32 H :    0.041130
  33 H :    0.036818
  34 H :    0.033309
  35 H :    0.036902
  36 H :    0.114601

-------------------------------
LOEWDIN REDUCED ORBITAL CHARGES
-------------------------------
  0 N s       :     3.041335  s :     3.041335
      pz      :     1.534408  p :     3.920788
      px      :     1.176385
      py      :     1.209995
      dz2     :     0.003233  d :     0.041568
      dxz     :     0.005242
      dyz     :     0.007425
      dx2y2   :     0.009513
      dxy     :     0.016155

  1 C s       :     2.816414  s :     2.816414
      pz      :     0.937656  p :     2.885451
      px      :     0.936244
      py      :     1.011551
      dz2     :     0.019417  d :     0.228570
      dxz     :     0.036881
      dyz     :     0.035928
      dx2y2   :     0.058945
      dxy     :     0.077399

  2 N s       :     3.240313  s :     3.240313
      pz      :     1.297266  p :     3.939305
      px      :     1.371325
      py      :     1.270714
      dz2     :     0.006812  d :     0.057744
      dxz     :     0.006664
      dyz     :     0.008739
      dx2y2   :     0.027139
      dxy     :     0.008390

  3 C s       :     2.842680  s :     2.842680
      pz      :     0.994255  p :     3.034570
      px      :     0.985404
      py      :     1.054911
      dz2     :     0.012120  d :     0.147942
      dxz     :     0.025813
      dyz     :     0.014566
      dx2y2   :     0.040986
      dxy     :     0.054458

  4 C s       :     2.864242  s :     2.864242
      pz      :     1.012136  p :     3.101726
      px      :     1.052673
      py      :     1.036917
      dz2     :     0.007665  d :     0.088988
      dxz     :     0.012813
      dyz     :     0.008568
      dx2y2   :     0.027573
      dxy     :     0.032369

  5 C s       :     2.861391  s :     2.861391
      pz      :     1.005416  p :     3.090914
      px      :     1.049397
      py      :     1.036101
      dz2     :     0.005989  d :     0.088895
      dxz     :     0.014562
      dyz     :     0.007626
      dx2y2   :     0.028940
      dxy     :     0.031777

  6 C s       :     2.846945  s :     2.846945
      pz      :     1.013554  p :     3.095334
      px      :     1.017913
      py      :     1.063867
      dz2     :     0.008875  d :     0.106481
      dxz     :     0.012164
      dyz     :     0.015783
      dx2y2   :     0.036028
      dxy     :     0.033631

  7 C s       :     2.853910  s :     2.853910
      pz      :     0.998227  p :     3.043643
      px      :     1.039500
      py      :     1.005915
      dz2     :     0.015817  d :     0.108516
      dxz     :     0.025321
      dyz     :     0.015402
      dx2y2   :     0.027187
      dxy     :     0.024788

  8 C s       :     2.865878  s :     2.865878
      pz      :     0.992554  p :     3.051016
      px      :     1.064169
      py      :     0.994293
      dz2     :     0.011479  d :     0.088350
      dxz     :     0.022233
      dyz     :     0.010923
      dx2y2   :     0.019965
      dxy     :     0.023751

  9 C s       :     2.869797  s :     2.869797
      pz      :     0.999662  p :     3.063532
      px      :     1.061827
      py      :     1.002044
      dz2     :     0.009224  d :     0.088235
      dxz     :     0.023121
      dyz     :     0.010096
      dx2y2   :     0.020600
      dxy     :     0.025194

 10 C s       :     2.847297  s :     2.847297
      pz      :     1.000068  p :     3.016086
      px      :     1.005392
      py      :     1.010627
      dz2     :     0.018254  d :     0.148123
      dxz     :     0.038010
      dyz     :     0.015003
      dx2y2   :     0.036144
      dxy     :     0.040713

 11 N s       :     3.217912  s :     3.217912
      pz      :     1.307455  p :     3.796184
      px      :     1.181798
      py      :     1.306931
      dz2     :     0.007406  d :     0.060118
      dxz     :     0.015234
      dyz     :     0.007080
      dx2y2   :     0.015457
      dxy     :     0.014941

 12 C s       :     2.848184  s :     2.848184
      pz      :     0.992887  p :     3.018526
      px      :     1.033699
      py      :     0.991940
      dz2     :     0.020172  d :     0.146676
      dxz     :     0.030203
      dyz     :     0.023791
      dx2y2   :     0.038758
      dxy     :     0.033751

 13 C s       :     2.871602  s :     2.871602
      pz      :     1.006026  p :     3.064009
      px      :     1.043571
      py      :     1.014411
      dz2     :     0.010931  d :     0.087640
      dxz     :     0.019162
      dyz     :     0.012306
      dx2y2   :     0.024922
      dxy     :     0.020319

 14 C s       :     2.866874  s :     2.866874
      pz      :     1.001117  p :     3.060192
      px      :     1.048632
      py      :     1.010443
      dz2     :     0.015208  d :     0.089361
      dxz     :     0.016681
      dyz     :     0.015777
      dx2y2   :     0.023415
      dxy     :     0.018280

 15 C s       :     2.867121  s :     2.867121
      pz      :     0.993399  p :     3.057283
      px      :     1.065736
      py      :     0.998149
      dz2     :     0.011904  d :     0.089525
      dxz     :     0.022132
      dyz     :     0.011239
      dx2y2   :     0.020580
      dxy     :     0.023670

 16 C s       :     2.871678  s :     2.871678
      pz      :     1.000906  p :     3.066057
      px      :     1.061359
      py      :     1.003791
      dz2     :     0.009091  d :     0.087356
      dxz     :     0.022946
      dyz     :     0.010047
      dx2y2   :     0.020434
      dxy     :     0.024838

 17 C s       :     2.848417  s :     2.848417
      pz      :     1.000652  p :     3.014065
      px      :     1.004191
      py      :     1.009222
      dz2     :     0.018447  d :     0.147466
      dxz     :     0.037967
      dyz     :     0.015047
      dx2y2   :     0.035806
      dxy     :     0.040198

 18 N s       :     3.218270  s :     3.218270
      pz      :     1.312494  p :     3.803240
      px      :     1.179474
      py      :     1.311272
      dz2     :     0.007373  d :     0.059560
      dxz     :     0.014983
      dyz     :     0.007108
      dx2y2   :     0.015385
      dxy     :     0.014710

 19 C s       :     2.847042  s :     2.847042
      pz      :     0.988176  p :     3.012821
      px      :     1.035657
      py      :     0.988989
      dz2     :     0.020031  d :     0.148364
      dxz     :     0.031091
      dyz     :     0.023851
      dx2y2   :     0.038797
      dxy     :     0.034593

 20 C s       :     2.867766  s :     2.867766
      pz      :     1.021403  p :     3.079111
      px      :     1.035259
      py      :     1.022450
      dz2     :     0.010816  d :     0.086254
      dxz     :     0.019147
      dyz     :     0.011998
      dx2y2   :     0.023987
      dxy     :     0.020306

 21 C s       :     2.859147  s :     2.859147
      pz      :     1.019116  p :     3.098380
      px      :     1.036776
      py      :     1.042488
      dz2     :     0.007956  d :     0.089314
      dxz     :     0.013741
      dyz     :     0.008205
      dx2y2   :     0.030124
      dxy     :     0.029288

 22 C s       :     2.832661  s :     2.832661
      pz      :     1.009571  p :     3.026615
      px      :     1.043941
      py      :     0.973103
      dz2     :     0.013562  d :     0.142887
      dxz     :     0.023505
      dyz     :     0.018698
      dx2y2   :     0.031427
      dxy     :     0.055694

 23 N s       :     3.037180  s :     3.037180
      pz      :     1.515699  p :     3.858794
      px      :     1.167740
      py      :     1.175356
      dz2     :     0.004766  d :     0.056928
      dxz     :     0.008861
      dyz     :     0.004788
      dx2y2   :     0.018917
      dxy     :     0.019596

 24 H s       :     0.777064  s :     0.777064
      pz      :     0.036257  p :     0.121993
      px      :     0.053712
      py      :     0.032024

 25 H s       :     0.774349  s :     0.774349
      pz      :     0.046124  p :     0.122380
      px      :     0.017849
      py      :     0.058407

 26 H s       :     0.899077  s :     0.899077
      pz      :     0.015063  p :     0.068485
      px      :     0.020119
      py      :     0.033302

 27 H s       :     0.899089  s :     0.899089
      pz      :     0.017519  p :     0.069506
      px      :     0.016787
      py      :     0.035199

 28 H s       :     0.890984  s :     0.890984
      pz      :     0.020951  p :     0.069575
      px      :     0.024366
      py      :     0.024258

 29 H s       :     0.892854  s :     0.892854
      pz      :     0.027698  p :     0.068909
      px      :     0.014402
      py      :     0.026809

 30 H s       :     0.893896  s :     0.893896
      pz      :     0.027516  p :     0.068954
      px      :     0.014350
      py      :     0.027088

 31 H s       :     0.891409  s :     0.891409
      pz      :     0.013146  p :     0.067676
      px      :     0.042541
      py      :     0.011989

 32 H s       :     0.891279  s :     0.891279
      pz      :     0.019735  p :     0.067591
      px      :     0.023918
      py      :     0.023937

 33 H s       :     0.894176  s :     0.894176
      pz      :     0.027425  p :     0.069005
      px      :     0.014710
      py      :     0.026871

 34 H s       :     0.895851  s :     0.895851
      pz      :     0.028891  p :     0.070840
      px      :     0.014275
      py      :     0.027674

 35 H s       :     0.892494  s :     0.892494
      pz      :     0.015247  p :     0.070604
      px      :     0.021285
      py      :     0.034072

 36 H s       :     0.761613  s :     0.761613
      pz      :     0.035653  p :     0.123786
      px      :     0.019802
      py      :     0.068331



                      *****************************
                      * MAYER POPULATION ANALYSIS *
                      *****************************

  NA   - Mulliken gross atomic population
  ZA   - Total nuclear charge
  QA   - Mulliken gross atomic charge
  VA   - Mayer's total valence
  BVA  - Mayer's bonded valence
  FA   - Mayer's free valence

  ATOM       NA         ZA         QA         VA         BVA        FA
  0 N      7.0447     7.0000    -0.0447     3.2439     3.2439     0.0000
  1 C      5.9825     6.0000     0.0175     4.2944     4.2944    -0.0000
  2 N      7.2174     7.0000    -0.2174     2.9972     2.9972     0.0000
  3 C      5.9338     6.0000     0.0662     3.9775     3.9775    -0.0000
  4 C      6.1169     6.0000    -0.1169     3.8101     3.8101     0.0000
  5 C      6.0476     6.0000    -0.0476     3.7789     3.7789    -0.0000
  6 C      5.9280     6.0000     0.0720     3.6926     3.6926    -0.0000
  7 C      5.8916     6.0000     0.1084     3.6619     3.6619    -0.0000
  8 C      6.0061     6.0000    -0.0061     3.7578     3.7578     0.0000
  9 C      6.0097     6.0000    -0.0097     3.7752     3.7752     0.0000
 10 C      6.0059     6.0000    -0.0059     4.0034     4.0034    -0.0000
 11 N      7.0495     7.0000    -0.0495     3.1349     3.1349    -0.0000
 12 C      5.9974     6.0000     0.0026     4.0102     4.0102     0.0000
 13 C      6.0108     6.0000    -0.0108     3.7799     3.7799    -0.0000
 14 C      5.9789     6.0000     0.0211     3.7525     3.7525     0.0000
 15 C      5.9769     6.0000     0.0231     3.7529     3.7529    -0.0000
 16 C      6.0131     6.0000    -0.0131     3.7816     3.7816    -0.0000
 17 C      5.9932     6.0000     0.0068     4.0112     4.0112     0.0000
 18 N      7.0551     7.0000    -0.0551     3.1325     3.1325    -0.0000
 19 C      5.9757     6.0000     0.0243     4.0119     4.0119    -0.0000
 20 C      6.0924     6.0000    -0.0924     3.7288     3.7288    -0.0000
 21 C      6.1545     6.0000    -0.1545     3.7390     3.7390    -0.0000
 22 C      5.8637     6.0000     0.1363     3.8669     3.8669     0.0000
 23 N      7.0612     7.0000    -0.0612     3.3091     3.3091     0.0000
 24 H      0.8430     1.0000     0.1570     0.9992     0.9992     0.0000
 25 H      0.8379     1.0000     0.1621     0.9872     0.9872     0.0000
 26 H      1.0245     1.0000    -0.0245     0.9911     0.9911     0.0000
 27 H      1.0065     1.0000    -0.0065     0.9868     0.9868     0.0000
 28 H      0.9920     1.0000     0.0080     0.9903     0.9903     0.0000
 29 H      1.0158     1.0000    -0.0158     1.0018     1.0018    -0.0000
 30 H      1.0147     1.0000    -0.0147     1.0026     1.0026     0.0000
 31 H      0.9833     1.0000     0.0167     0.9797     0.9797    -0.0000
 32 H      0.9829     1.0000     0.0171     0.9796     0.9796     0.0000
 33 H      1.0152     1.0000    -0.0152     1.0028     1.0028    -0.0000
 34 H      1.0273     1.0000    -0.0273     1.0157     1.0157    -0.0000
 35 H      1.0136     1.0000    -0.0136     0.9965     0.9965    -0.0000
 36 H      0.8370     1.0000     0.1630     0.9838     0.9838     0.0000

  Mayer bond orders larger than 0.100000
B(  0-N ,  1-C ) :   1.3028 B(  0-N , 24-H ) :   0.9279 B(  0-N , 25-H ) :   0.9252 
B(  1-C ,  2-N ) :   1.5457 B(  1-C , 23-N ) :   1.1864 B(  2-N ,  3-C ) :   1.3219 
B(  3-C ,  4-C ) :   1.2928 B(  3-C , 22-C ) :   1.2435 B(  4-C ,  5-C ) :   1.3686 
B(  4-C , 26-H ) :   1.0170 B(  5-C ,  6-C ) :   1.3258 B(  5-C , 27-H ) :   0.9852 
B(  6-C ,  7-C ) :   1.0038 B(  6-C , 21-C ) :   1.2916 B(  7-C ,  8-C ) :   1.1724 
B(  7-C , 20-C ) :   1.4283 B(  8-C ,  9-C ) :   1.5094 B(  8-C , 28-H ) :   0.9865 
B(  9-C , 10-C ) :   1.1718 B(  9-C , 29-H ) :   0.9978 B( 10-C , 11-N ) :   1.5114 
B( 10-C , 19-C ) :   1.1643 B( 11-N , 12-C ) :   1.4764 B( 12-C , 13-C ) :   1.1976 
B( 12-C , 17-C ) :   1.1692 B( 13-C , 14-C ) :   1.4906 B( 13-C , 16-C ) :   0.1081 
B( 13-C , 30-H ) :   0.9977 B( 14-C , 15-C ) :   1.1919 B( 14-C , 31-H ) :   0.9886 
B( 15-C , 16-C ) :   1.4937 B( 15-C , 32-H ) :   0.9884 B( 16-C , 17-C ) :   1.1940 
B( 16-C , 33-H ) :   0.9976 B( 17-C , 18-N ) :   1.4853 B( 18-N , 19-C ) :   1.4944 
B( 19-C , 20-C ) :   1.1761 B( 20-C , 34-H ) :   1.0012 B( 21-C , 22-C ) :   1.3219 
B( 21-C , 35-H ) :   1.0164 B( 22-C , 23-N ) :   1.1340 B( 23-N , 36-H ) :   0.9085 


-------
TIMINGS
-------

Total SCF time: 0 days 0 hours 2 min 3 sec 

Total time                  ....     123.523 sec
Sum of individual times     ....     113.103 sec  ( 91.6%)

SCF preparation             ....       0.719 sec  (  0.6%)
Fock matrix formation       ....     111.808 sec  ( 90.5%)
  Startup                   ....       0.007 sec  (  0.0% of F)
  Split-RI-J                ....       7.375 sec  (  6.6% of F)
  Chain of spheres X        ....      95.884 sec  ( 85.8% of F)
  XC integration            ....       9.304 sec  (  8.3% of F)
    Basis function eval.    ....       3.093 sec  ( 33.2% of XC)
    Density eval.           ....       2.140 sec  ( 23.0% of XC)
    XC-Functional eval.     ....       0.289 sec  (  3.1% of XC)
    XC-Potential eval.      ....       3.421 sec  ( 36.8% of XC)
  CPCM terms                ....       9.351 sec  (  8.4% of F)
Diagonalization             ....       0.000 sec  (  0.0%)
Density matrix formation    ....       0.072 sec  (  0.1%)
Total Energy calculation    ....       0.048 sec  (  0.0%)
Population analysis         ....       0.138 sec  (  0.1%)
Orbital Transformation      ....       0.038 sec  (  0.0%)
Orbital Orthonormalization  ....       0.000 sec  (  0.0%)
DIIS solution               ....       0.066 sec  (  0.1%)
SOSCF solution              ....       0.214 sec  (  0.2%)
Finished LeanSCF after 123.9 sec

Maximum memory used throughout the entire LEANSCF-calculation: 110.4 MB

------------------------------------------------------------------------------
                         ORCA PROPERTY INTEGRAL CALCULATIONS
------------------------------------------------------------------------------

GBWName                                   ... C:\Users\jabreumiranda\Radioprotection_Pipeline_Project\06_Quantum_DFT_ORCA\CHEMBL1683055_neutral_opt.gbw
Number of atoms                           ...     37
Number of basis functions                 ...    401
Max core memory                           ...   2000 MB

Dipole integrals                          ... YES
Quadrupole integrals                      ...  NO
Linear momentum integrals                 ...  NO
Angular momentum integrals                ...  NO
Higher moments length integrals           ...  NO
Higher moments velocity integrals         ...  NO
Kinetic energy integrals                  ...  NO
GIAO right hand sides                     ...  NO
GIAO dipole derivative integrals          ...  NO
SOC integrals                             ...  NO
EPR diamagnetic integrals (GIAO)          ...  NO
EPR gauge integrals                       ...  NO
Field gradient integrals                  ...  NO (   0 nuclei)
Spin-dipole/Fermi contact integrals       ...  NO (   0 nuclei)
Contact density integrals                 ...  NO (   0 nuclei)
Nucleus-orbit integrals                   ...  NO (   0 nuclei)
Geometric perturbations                   ... YES (  37 nuclei)

Choice of electric origin   ... Center of mass
Position of electric origin ... (  0.0606,  0.0377,  0.0514) 
Choice of magnetic origin   ... GIAO
Position of magnetic origin ... (  0.0000,  0.0000,  0.0000) 

Calculating integrals                     ... Electric Dipole (Length)     done (  0.0 sec)
Calculating integrals                     ... Geometrical perturbation right hand sides

-----------------------
GEOMETRIC PERTURBATIONS (37 nuclei)
-----------------------

MaxCore                            ...   2000 MB
Number of batches                  ...      1

BATCH   0: Atoms    0 -   36 (111 perturbations)
   => H(core) and overlap derivative integrals     ... done (     1.2 sec)
   => Making and storing internal U-coefficients   ... done (     2.4 sec)
   => RI-J derivative integrals                    ... done (    33.4 sec)
   => RI-J response operators                      ... done (    12.0 sec)
   => Chain of spheres derivative integrals        ... done (   119.5 sec)
   => Chain of spheres response operator           ... done (   182.0 sec)
   => XC derivative integrals                      ... done (   234.9 sec)
   => XC response operators                        ... done (   123.9 sec)
   => CPCM derivative integrals                    ... done (    84.1 sec)
   => CPCM response operators                      ... done (   138.1 sec)
   => Completing and storing right hand sides      ... done (     0.4 sec)
   => Total time for right hand sides = 852.2 sec

  geometrical perturbations done (852.2 sec)

Property integrals calculated in 852.2 sec

Maximum memory used throughout the entire PROPINT-calculation: 883.0 MB


-------------------------------------------------------------------------------
                          DFT DISPERSION CORRECTION                            
                                                                               
                              DFTD3 V3.1  Rev 1                                
                          USING Becke-Johnson damping                          
-------------------------------------------------------------------------------
The B3LYP functional is recognized
Active option DFTDOPT                   ...         4   

molecular C6(AA) [au] = 19085.464520 


            DFT-D V3
 parameters
 s6 scaling factor         :     1.0000 
 a1 scaling factor         :     0.3981 
 s8 scaling factor         :     1.9889 
 a2 scaling factor         :     4.4211 
 ad hoc parameters k1-k3   :    16.0000     1.3333    -4.0000 

 Edisp/kcal,au: -55.271667487478  -0.088080999373 
 E6   /kcal   : -25.460419914 
 E8   /kcal   : -29.811247574 
 % E8         :  53.935857065 

-------------------------   ----------------
Dispersion correction           -0.088080999
-------------------------   ----------------


-------------------------   --------------------
FINAL SINGLE POINT ENERGY     -1004.443389761184
-------------------------   --------------------

                                *** OPTIMIZATION RUN DONE ***

------------------------------------------------------------------------------
                            ORCA SCF RESPONSE CALCULATION
------------------------------------------------------------------------------

GBWName                                 ... C:\Users\jabreumiranda\Radioprotection_Pipeline_Project\06_Quantum_DFT_ORCA\CHEMBL1683055_neutral_opt.gbw
Number of atoms                         ...     37
Number of basis functions               ...    401
Max core memory                         ...   2000 MB

Electric field perturbation             ...  NO
Quadrupolar field perturbation          ...  NO
Magnetic field perturbation (no GIAO)   ...  NO
Magnetic field perturbation (with GIAO) ...  NO
Linear momentum (velocity) perturbation ...  NO
Spin-orbit coupling perturbation        ...  NO
Choice of electric origin               ... Center of mass
Position of electric origin             ...     0.060580     0.037685     0.051424
Choice of magnetic origin               ... GIAO
Position of magnetic origin             ...     0.000000     0.000000     0.000000
Nuclear geometric perturbations         ... YES ( 111 perturbations)
Nucleus-orbit perturbations             ...  NO (   0 perturbations)
Spin-dipole/Fermi contact perturbations ...  NO (   0 perturbations)

Total number of real perturbations      ...    111
Total number of imaginary perturbations ...      0
Total number of triplet perturbations   ...      0
Total number of SOC perturbations       ...      0


                                **********************
                                * REAL PERTURBATIONS *
                                **********************



-------------------
SHARK CP-SCF DRIVER
-------------------

Dimension of the orbital basis          ...    401
Dimension of the CPSCF-problem          ...  25920
Number of operators                     ...      1
Max. number of iterations               ...    128
Convergence Tolerance                   ... 1.0e-04
Number of perturbations                 ...    111
Perturbation type                       ... REAL

----------------------------
POPLE LINEAR EQUATION SOLVER
----------------------------

  ITERATION   0:   ||err||_max =   5.6606e-01 ( 156.4 sec   0/111 done)
  ITERATION   1:   ||err||_max =   7.8321e-02 ( 156.5 sec   0/111 done)
  ITERATION   2:   ||err||_max =   3.8880e-02 ( 155.2 sec   0/111 done)
  ITERATION   3:   ||err||_max =   1.4174e-02 ( 157.0 sec   0/111 done)
  ITERATION   4:   ||err||_max =   5.1706e-03 ( 156.3 sec   0/111 done)
  ITERATION   5:   ||err||_max =   1.0333e-03 ( 156.5 sec  11/111 done)
  ITERATION   6:   ||err||_max =   4.7436e-04 ( 144.4 sec  42/111 done)
  ITERATION   7:   ||err||_max =   1.4346e-04 ( 109.3 sec  91/111 done)
  ITERATION   8:   ||err||_max =   5.2293e-05 (  42.5 sec 111/111 done)

CP-SCF equations solved in 1255.5 sec
Response densities calculated in   0.0 sec

Maximum memory used throughout the entire SCFRESP-calculation: 946.5 MB

------------------------------------------------------------------------------
                              ORCA PROPERTY CALCULATIONS
------------------------------------------------------------------------------

GBWName                                 ... C:\Users\jabreumiranda\Radioprotection_Pipeline_Project\06_Quantum_DFT_ORCA\CHEMBL1683055_neutral_opt.gbw
Number of atoms                         ...     37
Number of basis functions               ...    401
Max core memory                         ...   2000 MB

Electric properties:
Dipole moment                           ... YES
Quadrupole moment                       ...  NO
Static polarizability (Dipole/Dipole)   ...  NO
Static polarizability (Dipole/Quad.)    ...  NO
Static polarizability (Quad./Quad.)     ...  NO
Static polarizability (Velocity)        ...  NO
Static hyperpolarizability              ...  NO

Atomic electric properties:
Dipole moment                           ...  NO
Quadrupole moment                       ...  NO
Static polarizability                   ...  NO

Choice of electric origin               ... Center of mass
Position of electric origin             ...     0.060580     0.037685     0.051424

General magnetic properties:
Magnetizability                         ...  NO

EPR properties:
g-Tensor (aka g-matrix)                 ...  NO
Zero-Field splitting spin-orbit         ...  NO
Zero-field splitting spin-spin          ...  NO
Hyperfine couplings                     ...  NO (   0 nuclei)
Quadrupole couplings                    ...  NO (   0 nuclei)
Contact density                         ...  NO (   0 nuclei)

NMR properties:
Chemical shifts                         ...  NO (   0 nuclei)
Spin-rotation constants                 ...  NO (   0 nuclei)
Spin-spin couplings                     ...  NO (   0 nuclei,    0 pairs)

Choice of magnetic origin               ... GIAO
Position of magnetic origin             ...     0.000000     0.000000     0.000000

Properties with geometric perturbations:
SCF Hessian                             ... YES
IR spectrum                             ... YES
VCD spectrum                            ...  NO
X-ray spectroscopy properties:
SCF XES/XAS/RIXS spectra                ...  NO

SCF SOC stabilization energy            ...  NO
Diagonal Born-Oppenheimer correction    ...  NO

-------------
DIPOLE MOMENT
-------------

Method             : SCF
Type of density    : Electron Density
Multiplicity       :   1
Irrep              :   0
Energy             : -1004.3553087618104200 Eh
Basis              : AO
                                X                 Y                 Z
Electronic contribution:      0.445968332      -0.033258027       0.300278389
Nuclear contribution   :      0.763756933      -2.348097699      -1.391258037
                        -----------------------------------------
Total Dipole Moment    :      1.209725266      -2.381355726      -1.090979648
                        -----------------------------------------
Magnitude (a.u.)       :      2.885225625
Magnitude (Debye)      :      7.333660723



--------------------
Rotational spectrum 
--------------------
 
Rotational constants in cm-1:             0.027776             0.002912             0.002658 
Rotational constants in MHz :           832.690204            87.289704            79.679721 

Dipole components along the rotational axes: 
x,y,z [a.u.] :     1.278069     2.553075     0.415783 
x,y,z [Debye]:     3.248592     6.489401     1.056838 

 

Dipole moment calculation done in   0.1 sec 

-----------
SCF HESSIAN
-----------

Occupied/Occupied contributions to the Hessian:
   => Occupied/Occupied contributions              ... done (  0.3 sec)
Perturbed density contributions to the Hessian:
   => Perturbed density contributions              ... done (  0.7 sec)
Explicit contributions to the Hessian:
   => Nuclear repulsion Hessian                    ... done (  0.0 sec)
   => HCore and overlap Hessian                    ... done ( 75.9 sec)
   => RI-J Hessian                                 ... done ( 65.4 sec)
   => COSX Hessian                                 ... done (1422.5 sec)
   => XC-Hessian                                   ... done (141.0 sec)
   => CPCM-Hessian                                 ... done ( 57.8 sec)
   => Van der Waals-Hessian                        ... done ( 10.0 sec)
   => Explicit contributions done
Dipole derivatives                                 ... done (  0.5 sec)
Mass weighting the Hessian           ... done
Calculating normal modes             ... done
Scaling frequencies                  ... done

-----------------------
VIBRATIONAL FREQUENCIES
-----------------------

Scaling factor for frequencies =  1.000000000  (already applied!)

     0:       0.00 cm**-1
     1:       0.00 cm**-1
     2:       0.00 cm**-1
     3:       0.00 cm**-1
     4:       0.00 cm**-1
     5:       0.00 cm**-1
     6:      33.52 cm**-1
     7:      36.14 cm**-1
     8:      56.83 cm**-1
     9:      90.53 cm**-1
    10:     113.71 cm**-1
    11:     144.99 cm**-1
    12:     198.86 cm**-1
    13:     204.93 cm**-1
    14:     215.59 cm**-1
    15:     264.33 cm**-1
    16:     271.33 cm**-1
    17:     303.73 cm**-1
    18:     330.33 cm**-1
    19:     355.98 cm**-1
    20:     384.71 cm**-1
    21:     401.19 cm**-1
    22:     412.83 cm**-1
    23:     429.03 cm**-1
    24:     445.24 cm**-1
    25:     451.53 cm**-1
    26:     491.40 cm**-1
    27:     496.92 cm**-1
    28:     506.90 cm**-1
    29:     510.57 cm**-1
    30:     532.96 cm**-1
    31:     539.74 cm**-1
    32:     561.02 cm**-1
    33:     573.13 cm**-1
    34:     620.01 cm**-1
    35:     625.29 cm**-1
    36:     635.94 cm**-1
    37:     681.50 cm**-1
    38:     690.16 cm**-1
    39:     720.67 cm**-1
    40:     744.99 cm**-1
    41:     749.51 cm**-1
    42:     761.71 cm**-1
    43:     784.06 cm**-1
    44:     786.76 cm**-1
    45:     793.04 cm**-1
    46:     831.75 cm**-1
    47:     846.57 cm**-1
    48:     858.14 cm**-1
    49:     876.78 cm**-1
    50:     883.42 cm**-1
    51:     905.53 cm**-1
    52:     912.22 cm**-1
    53:     920.78 cm**-1
    54:     927.22 cm**-1
    55:     941.40 cm**-1
    56:     969.48 cm**-1
    57:     982.34 cm**-1
    58:    1007.87 cm**-1
    59:    1023.23 cm**-1
    60:    1024.38 cm**-1
    61:    1027.45 cm**-1
    62:    1038.86 cm**-1
    63:    1039.77 cm**-1
    64:    1102.21 cm**-1
    65:    1135.54 cm**-1
    66:    1138.51 cm**-1
    67:    1145.76 cm**-1
    68:    1161.47 cm**-1
    69:    1201.18 cm**-1
    70:    1224.07 cm**-1
    71:    1252.63 cm**-1
    72:    1257.00 cm**-1
    73:    1275.36 cm**-1
    74:    1287.44 cm**-1
    75:    1309.22 cm**-1
    76:    1328.73 cm**-1
    77:    1335.19 cm**-1
    78:    1339.20 cm**-1
    79:    1369.17 cm**-1
    80:    1392.59 cm**-1
    81:    1403.23 cm**-1
    82:    1448.19 cm**-1
    83:    1470.67 cm**-1
    84:    1471.89 cm**-1
    85:    1500.47 cm**-1
    86:    1504.55 cm**-1
    87:    1516.68 cm**-1
    88:    1537.43 cm**-1
    89:    1562.20 cm**-1
    90:    1563.97 cm**-1
    91:    1594.95 cm**-1
    92:    1599.60 cm**-1
    93:    1614.87 cm**-1
    94:    1648.68 cm**-1
    95:    1656.27 cm**-1
    96:    1687.23 cm**-1
    97:    1697.22 cm**-1
    98:    3182.83 cm**-1
    99:    3184.01 cm**-1
   100:    3190.72 cm**-1
   101:    3192.15 cm**-1
   102:    3196.75 cm**-1
   103:    3199.53 cm**-1
   104:    3199.62 cm**-1
   105:    3203.82 cm**-1
   106:    3205.29 cm**-1
   107:    3209.68 cm**-1
   108:    3570.31 cm**-1
   109:    3623.81 cm**-1
   110:    3681.63 cm**-1


------------
NORMAL MODES
------------

These modes are the Cartesian displacements weighted by the diagonal matrix
M(i,i)=1/sqrt(m[i]) where m[i] is the mass of the displaced atom
Thus, these vectors are normalized but *not* orthogonal

                  0          1          2          3          4          5    
      0       0.000000   0.000000   0.000000   0.000000   0.000000   0.000000
      1       0.000000   0.000000   0.000000   0.000000   0.000000   0.000000
      2       0.000000   0.000000   0.000000   0.000000   0.000000   0.000000
      3       0.000000   0.000000   0.000000   0.000000   0.000000   0.000000
      4       0.000000   0.000000   0.000000   0.000000   0.000000   0.000000
      5       0.000000   0.000000   0.000000   0.000000   0.000000   0.000000
      6       0.000000   0.000000   0.000000   0.000000   0.000000   0.000000
      7       0.000000   0.000000   0.000000   0.000000   0.000000   0.000000
      8       0.000000   0.000000   0.000000   0.000000   0.000000   0.000000
      9       0.000000   0.000000   0.000000   0.000000   0.000000   0.000000
     10       0.000000   0.000000   0.000000   0.000000   0.000000   0.000000
     11       0.000000   0.000000   0.000000   0.000000   0.000000   0.000000
     12       0.000000   0.000000   0.000000   0.000000   0.000000   0.000000
     13       0.000000   0.000000   0.000000   0.000000   0.000000   0.000000
     14       0.000000   0.000000   0.000000   0.000000   0.000000   0.000000
     15       0.000000   0.000000   0.000000   0.000000   0.000000   0.000000
     16       0.000000   0.000000   0.000000   0.000000   0.000000   0.000000
     17       0.000000   0.000000   0.000000   0.000000   0.000000   0.000000
     18       0.000000   0.000000   0.000000   0.000000   0.000000   0.000000
     19       0.000000   0.000000   0.000000   0.000000   0.000000   0.000000
     20       0.000000   0.000000   0.000000   0.000000   0.000000   0.000000
     21       0.000000   0.000000   0.000000   0.000000   0.000000   0.000000
     22       0.000000   0.000000   0.000000   0.000000   0.000000   0.000000
     23       0.000000   0.000000   0.000000   0.000000   0.000000   0.000000
     24       0.000000   0.000000   0.000000   0.000000   0.000000   0.000000
     25       0.000000   0.000000   0.000000   0.000000   0.000000   0.000000
     26       0.000000   0.000000   0.000000   0.000000   0.000000   0.000000
     27       0.000000   0.000000   0.000000   0.000000   0.000000   0.000000
     28       0.000000   0.000000   0.000000   0.000000   0.000000   0.000000
     29       0.000000   0.000000   0.000000   0.000000   0.000000   0.000000
     30       0.000000   0.000000   0.000000   0.000000   0.000000   0.000000
     31       0.000000   0.000000   0.000000   0.000000   0.000000   0.000000
     32       0.000000   0.000000   0.000000   0.000000   0.000000   0.000000
     33       0.000000   0.000000   0.000000   0.000000   0.000000   0.000000
     34       0.000000   0.000000   0.000000   0.000000   0.000000   0.000000
     35       0.000000   0.000000   0.000000   0.000000   0.000000   0.000000
     36       0.000000   0.000000   0.000000   0.000000   0.000000   0.000000
     37       0.000000   0.000000   0.000000   0.000000   0.000000   0.000000
     38       0.000000   0.000000   0.000000   0.000000   0.000000   0.000000
     39       0.000000   0.000000   0.000000   0.000000   0.000000   0.000000
     40       0.000000   0.000000   0.000000   0.000000   0.000000   0.000000
     41       0.000000   0.000000   0.000000   0.000000   0.000000   0.000000
     42       0.000000   0.000000   0.000000   0.000000   0.000000   0.000000
     43       0.000000   0.000000   0.000000   0.000000   0.000000   0.000000
     44       0.000000   0.000000   0.000000   0.000000   0.000000   0.000000
     45       0.000000   0.000000   0.000000   0.000000   0.000000   0.000000
     46       0.000000   0.000000   0.000000   0.000000   0.000000   0.000000
     47       0.000000   0.000000   0.000000   0.000000   0.000000   0.000000
     48       0.000000   0.000000   0.000000   0.000000   0.000000   0.000000
     49       0.000000   0.000000   0.000000   0.000000   0.000000   0.000000
     50       0.000000   0.000000   0.000000   0.000000   0.000000   0.000000
     51       0.000000   0.000000   0.000000   0.000000   0.000000   0.000000
     52       0.000000   0.000000   0.000000   0.000000   0.000000   0.000000
     53       0.000000   0.000000   0.000000   0.000000   0.000000   0.000000
     54       0.000000   0.000000   0.000000   0.000000   0.000000   0.000000
     55       0.000000   0.000000   0.000000   0.000000   0.000000   0.000000
     56       0.000000   0.000000   0.000000   0.000000   0.000000   0.000000
     57       0.000000   0.000000   0.000000   0.000000   0.000000   0.000000
     58       0.000000   0.000000   0.000000   0.000000   0.000000   0.000000
     59       0.000000   0.000000   0.000000   0.000000   0.000000   0.000000
     60       0.000000   0.000000   0.000000   0.000000   0.000000   0.000000
     61       0.000000   0.000000   0.000000   0.000000   0.000000   0.000000
     62       0.000000   0.000000   0.000000   0.000000   0.000000   0.000000
     63       0.000000   0.000000   0.000000   0.000000   0.000000   0.000000
     64       0.000000   0.000000   0.000000   0.000000   0.000000   0.000000
     65       0.000000   0.000000   0.000000   0.000000   0.000000   0.000000
     66       0.000000   0.000000   0.000000   0.000000   0.000000   0.000000
     67       0.000000   0.000000   0.000000   0.000000   0.000000   0.000000
     68       0.000000   0.000000   0.000000   0.000000   0.000000   0.000000
     69       0.000000   0.000000   0.000000   0.000000   0.000000   0.000000
     70       0.000000   0.000000   0.000000   0.000000   0.000000   0.000000
     71       0.000000   0.000000   0.000000   0.000000   0.000000   0.000000
     72       0.000000   0.000000   0.000000   0.000000   0.000000   0.000000
     73       0.000000   0.000000   0.000000   0.000000   0.000000   0.000000
     74       0.000000   0.000000   0.000000   0.000000   0.000000   0.000000
     75       0.000000   0.000000   0.000000   0.000000   0.000000   0.000000
     76       0.000000   0.000000   0.000000   0.000000   0.000000   0.000000
     77       0.000000   0.000000   0.000000   0.000000   0.000000   0.000000
     78       0.000000   0.000000   0.000000   0.000000   0.000000   0.000000
     79       0.000000   0.000000   0.000000   0.000000   0.000000   0.000000
     80       0.000000   0.000000   0.000000   0.000000   0.000000   0.000000
     81       0.000000   0.000000   0.000000   0.000000   0.000000   0.000000
     82       0.000000   0.000000   0.000000   0.000000   0.000000   0.000000
     83       0.000000   0.000000   0.000000   0.000000   0.000000   0.000000
     84       0.000000   0.000000   0.000000   0.000000   0.000000   0.000000
     85       0.000000   0.000000   0.000000   0.000000   0.000000   0.000000
     86       0.000000   0.000000   0.000000   0.000000   0.000000   0.000000
     87       0.000000   0.000000   0.000000   0.000000   0.000000   0.000000
     88       0.000000   0.000000   0.000000   0.000000   0.000000   0.000000
     89       0.000000   0.000000   0.000000   0.000000   0.000000   0.000000
     90       0.000000   0.000000   0.000000   0.000000   0.000000   0.000000
     91       0.000000   0.000000   0.000000   0.000000   0.000000   0.000000
     92       0.000000   0.000000   0.000000   0.000000   0.000000   0.000000
     93       0.000000   0.000000   0.000000   0.000000   0.000000   0.000000
     94       0.000000   0.000000   0.000000   0.000000   0.000000   0.000000
     95       0.000000   0.000000   0.000000   0.000000   0.000000   0.000000
     96       0.000000   0.000000   0.000000   0.000000   0.000000   0.000000
     97       0.000000   0.000000   0.000000   0.000000   0.000000   0.000000
     98       0.000000   0.000000   0.000000   0.000000   0.000000   0.000000
     99       0.000000   0.000000   0.000000   0.000000   0.000000   0.000000
    100       0.000000   0.000000   0.000000   0.000000   0.000000   0.000000
    101       0.000000   0.000000   0.000000   0.000000   0.000000   0.000000
    102       0.000000   0.000000   0.000000   0.000000   0.000000   0.000000
    103       0.000000   0.000000   0.000000   0.000000   0.000000   0.000000
    104       0.000000   0.000000   0.000000   0.000000   0.000000   0.000000
    105       0.000000   0.000000   0.000000   0.000000   0.000000   0.000000
    106       0.000000   0.000000   0.000000   0.000000   0.000000   0.000000
    107       0.000000   0.000000   0.000000   0.000000   0.000000   0.000000
    108       0.000000   0.000000   0.000000   0.000000   0.000000   0.000000
    109       0.000000   0.000000   0.000000   0.000000   0.000000   0.000000
    110       0.000000   0.000000   0.000000   0.000000   0.000000   0.000000
                  6          7          8          9         10         11    
      0      -0.003204   0.059491   0.149754   0.069539  -0.006397   0.066333
      1       0.086745   0.042223   0.117847   0.134742  -0.028780  -0.021571
      2      -0.184913   0.100051   0.127401  -0.166050   0.084109   0.233063
      3      -0.003608   0.032342   0.105480   0.052495  -0.014479   0.012995
      4       0.051158   0.029524   0.079187   0.051492  -0.005490   0.010789
      5      -0.104862   0.040513   0.061239  -0.029708   0.005945  -0.028286
      6      -0.022046  -0.022090   0.055203  -0.001779  -0.016844  -0.022785
      7       0.051961   0.071096   0.058230   0.054536   0.002846   0.025258
      8      -0.107408  -0.129352   0.144972  -0.046486  -0.029657  -0.088843
      9      -0.011328  -0.026861   0.024665   0.005307  -0.021231  -0.036862
     10       0.011950   0.042841   0.015380  -0.024780   0.013667   0.013177
     11      -0.021429  -0.118320   0.046151   0.057573  -0.054256  -0.146189
     12      -0.023589  -0.068831  -0.025484  -0.032048  -0.015988  -0.035994
     13      -0.003274   0.064751  -0.021049  -0.039873   0.014007  -0.019554
     14       0.004183  -0.243303   0.074325   0.040719  -0.045408  -0.055546
     15      -0.012005  -0.058527  -0.038568  -0.026105  -0.010092  -0.011925
     16      -0.039280   0.025522  -0.067531  -0.089730   0.008249  -0.070302
     17       0.070244  -0.183823  -0.010261   0.059928  -0.007687   0.072604
     18       0.010094  -0.004787  -0.009529   0.014062  -0.004777   0.000798
     19      -0.061657  -0.034373  -0.075768  -0.124106   0.005455  -0.078557
     20       0.117182  -0.016322  -0.114989   0.101055  -0.001277   0.080796
     21       0.010671   0.001521  -0.009132  -0.000756   0.003128   0.011820
     22      -0.076365  -0.063526  -0.107565  -0.087535  -0.007340  -0.079325
     23       0.126028   0.023370  -0.091029   0.016489   0.033625   0.149891
     24      -0.010626   0.022350   0.027049   0.004011   0.029277  -0.006431
     25      -0.007386  -0.097522  -0.099785  -0.059318  -0.154166   0.009807
     26       0.046257   0.067019  -0.076114  -0.008623   0.192425   0.056980
     27      -0.019442   0.027654   0.037912  -0.003588   0.023977  -0.021936
     28       0.034468  -0.110856  -0.065640   0.033177  -0.130220   0.099147
     29      -0.011964   0.097954  -0.048251  -0.091373   0.163985  -0.032813
     30      -0.009570   0.016335   0.006025  -0.014679   0.004876  -0.026845
     31       0.008503  -0.078069  -0.043933   0.077663   0.012569   0.085731
     32       0.007288   0.071741  -0.026208  -0.128664   0.005412  -0.014097
     33      -0.023144   0.018438   0.013683  -0.009181  -0.006053  -0.037555
     34       0.082517  -0.069970   0.019685   0.092926   0.067362   0.103483
     35      -0.086601   0.080846  -0.016907  -0.111677  -0.064060  -0.062552
     36      -0.012389   0.001159  -0.027936  -0.022323  -0.003414  -0.015387
     37       0.060506  -0.013468   0.040559   0.066675   0.086834   0.053626
     38      -0.073002   0.032908   0.011674  -0.059317  -0.092183  -0.034668
     39      -0.028698   0.001013  -0.024249  -0.001762  -0.009857  -0.008114
     40       0.154700   0.011750   0.127573  -0.019664   0.112371  -0.075729
     41      -0.190531   0.027041   0.010546   0.079999  -0.135023   0.042135
     42      -0.017412  -0.018679  -0.069626  -0.012181   0.014507   0.027207
     43       0.132079   0.082438   0.146529  -0.096461  -0.008426  -0.136239
     44      -0.176795  -0.035703   0.045362   0.190072  -0.015585   0.069544
     45       0.011279  -0.038980  -0.116550  -0.044319   0.041882   0.042200
     46       0.010385   0.128568   0.078429  -0.055515  -0.146150  -0.025033
     47      -0.041012  -0.092279   0.088399   0.132691   0.135051  -0.032698
     48       0.027568  -0.039007  -0.120640  -0.066343   0.038757   0.034597
     49      -0.082127   0.101287  -0.002897   0.048098  -0.109454   0.092130
     50       0.073982  -0.083183   0.089823  -0.020632   0.109776  -0.102069
     51       0.015463  -0.018873  -0.073969  -0.048873   0.011214   0.005274
     52      -0.055095   0.029936  -0.018256   0.089006   0.027033   0.081347
     53       0.056413  -0.020735   0.046265  -0.094932  -0.025297  -0.051465
     54       0.028838  -0.019538  -0.078470  -0.055362   0.005782   0.012692
     55      -0.128810   0.009175  -0.078744   0.105375   0.070330   0.049011
     56       0.150747  -0.017327   0.033655  -0.146475  -0.061390   0.016581
     57       0.015366  -0.002621  -0.036294  -0.030089  -0.001373  -0.001317
     58      -0.089836  -0.042130  -0.083366   0.065958   0.073524   0.008761
     59       0.119267   0.024845  -0.011156  -0.127190  -0.058715   0.078190
     60       0.023378  -0.003872  -0.038701  -0.015401  -0.006856   0.008190
     61      -0.130144  -0.046400  -0.114161  -0.013807   0.101150  -0.100474
     62       0.176681   0.011259  -0.046770  -0.060491  -0.085379   0.189411
     63       0.026403   0.033129   0.036000   0.059088  -0.017825  -0.007217
     64      -0.050978  -0.056189  -0.031342  -0.127240   0.011696  -0.036480
     65       0.108290   0.107508  -0.182849   0.172728  -0.032177  -0.067057
     66       0.014011   0.026707   0.053460   0.060430  -0.021135  -0.023054
     67      -0.013988  -0.018590   0.013225  -0.077152   0.013376   0.005189
     68       0.037028   0.060647  -0.100092   0.148480  -0.048676  -0.169631
     69       0.019565   0.063764   0.105905   0.098686  -0.020740  -0.000843
     70       0.011298  -0.025040   0.056637  -0.035022   0.005108   0.020328
     71      -0.014756   0.160245  -0.098618   0.119264  -0.023674  -0.167466
     72      -0.037775   0.020184   0.168130  -0.005516   0.008982   0.121012
     73       0.112821   0.055583   0.146583   0.201499  -0.044366  -0.047249
     74      -0.246594  -0.006225   0.252856  -0.278395   0.102408   0.363827
     75      -0.011594   0.082559   0.218575   0.072392   0.006413   0.161501
     76       0.080610  -0.024317   0.145645   0.125101  -0.040173  -0.060958
     77      -0.172143   0.208274   0.061701  -0.150262   0.100066   0.276093
     78      -0.044058  -0.107933  -0.051804  -0.069985  -0.012932  -0.043792
     79       0.015540   0.108700  -0.016569  -0.007027   0.012408  -0.017746
     80      -0.036082  -0.380386   0.171353  -0.019157  -0.048048  -0.031144
     81      -0.022022  -0.099406  -0.069255  -0.062780  -0.013345  -0.003438
     82      -0.046731   0.034667  -0.094300  -0.093732  -0.001320  -0.099216
     83       0.076790  -0.273322   0.021878   0.013424   0.021617   0.173912
     84      -0.023085   0.039005   0.047709   0.016186   0.053793  -0.015393
     85       0.024093  -0.116798  -0.114513  -0.115812  -0.280105   0.026448
     86       0.024057   0.070001  -0.087162   0.042782   0.314161   0.048386
     87      -0.035676   0.038789   0.069356  -0.000115   0.034196  -0.024539
     88       0.098519  -0.139834  -0.051151   0.045687  -0.223852   0.173697
     89      -0.083081   0.132144  -0.045714  -0.101898   0.260816  -0.106567
     90      -0.050436   0.016860   0.016942   0.027232  -0.030061  -0.033738
     91       0.245122  -0.022947   0.177912  -0.043926   0.193420  -0.140617
     92      -0.291365   0.069427  -0.019229   0.118483  -0.225777   0.094214
     93      -0.030227  -0.019087  -0.067452   0.006270   0.013297   0.037232
     94       0.206552   0.104379   0.212538  -0.187265  -0.012346  -0.255022
     95      -0.268955  -0.043599   0.040981   0.318522  -0.021489   0.157252
     96       0.020160  -0.054784  -0.150074  -0.051406   0.063824   0.063264
     97      -0.007431   0.185831   0.091296  -0.112781  -0.268552  -0.041903
     98      -0.030579  -0.142942   0.117276   0.214114   0.259371  -0.039717
     99       0.049208  -0.054630  -0.161293  -0.095081   0.059507   0.059700
    100      -0.173006   0.135158  -0.054608   0.070842  -0.191779   0.159512
    101       0.175723  -0.125296   0.118169  -0.059146   0.202632  -0.154456
    102       0.036362  -0.008595  -0.069240  -0.010205  -0.012918   0.002418
    103      -0.190489  -0.015609  -0.135654  -0.023445   0.192289  -0.161863
    104       0.240924  -0.021383  -0.040820  -0.050393  -0.175960   0.247093
    105       0.047335   0.066852   0.062202   0.085196  -0.022122   0.009847
    106      -0.067873  -0.094504  -0.037546  -0.149275   0.012783  -0.047334
    107       0.138877   0.242627  -0.278536   0.204715  -0.020492  -0.067540
    108       0.035337   0.105616   0.142541   0.138314  -0.017395   0.037600
    109       0.005359  -0.061912   0.062786  -0.043904  -0.003447  -0.010286
    110      -0.003589   0.295503  -0.172488   0.116841   0.015321  -0.059521
                 12         13         14         15         16         17    
      0       0.142194   0.102444   0.005534   0.006078   0.046399   0.152813
      1       0.093691  -0.017795  -0.180537   0.053190   0.021808   0.156240
      2      -0.091306   0.121178  -0.071783  -0.001603   0.045262  -0.002200
      3       0.093858   0.056388   0.103105  -0.019405   0.005317   0.006184
      4      -0.019325   0.001413  -0.049915   0.002090   0.000397  -0.058758
      5       0.018737  -0.076628  -0.015953   0.012131  -0.042838   0.006223
      6       0.046633   0.016076   0.200270  -0.062604   0.008089  -0.054940
      7      -0.046443   0.047203  -0.038374   0.038461  -0.035058  -0.070216
      8       0.109603  -0.261005  -0.024452  -0.140535   0.087490  -0.001586
      9       0.026817   0.035058   0.203932  -0.041895   0.000217  -0.042579
     10      -0.092600   0.007282   0.058411  -0.003231  -0.038761  -0.104020
     11       0.046238  -0.137653  -0.009655  -0.046340   0.034652  -0.030761
     12      -0.000853   0.068161   0.172445   0.000970  -0.000025   0.057201
     13      -0.074067  -0.046999   0.065809  -0.040007  -0.007436  -0.062994
     14      -0.065846   0.067949  -0.028730   0.108172  -0.066183  -0.036511
     15      -0.011732   0.092904   0.146069   0.008165   0.002445   0.071438
     16      -0.053588  -0.072818   0.094618  -0.036339   0.017638   0.058655
     17      -0.152072   0.218223  -0.030975   0.108833  -0.068192  -0.004062
     18      -0.011206   0.040526   0.075060  -0.025887   0.018444   0.006402
     19      -0.056831  -0.025735   0.116151   0.020876  -0.018097   0.105363
     20      -0.096775   0.100207  -0.006945  -0.104266   0.115129  -0.007656
     21      -0.018021  -0.003753   0.016556  -0.010830   0.001761  -0.002922
     22       0.031427   0.059691   0.012268   0.027367   0.033393   0.141173
     23      -0.023658  -0.027283   0.036361  -0.095025   0.052865   0.045775
     24      -0.007165  -0.044782  -0.059186   0.003305  -0.047059  -0.047691
     25       0.033658   0.056244  -0.019393   0.095460   0.154579   0.073332
     26       0.003771  -0.036303   0.038774  -0.155536  -0.090874   0.104040
     27      -0.009253  -0.051033  -0.072775   0.038321  -0.037438  -0.066580
     28       0.068800   0.041585  -0.077443  -0.056266   0.000279  -0.022015
     29       0.073541  -0.042989   0.053639   0.058596   0.003515   0.060923
     30      -0.086990  -0.050672  -0.090399   0.025218   0.011538  -0.008209
     31       0.101897   0.013873  -0.051199  -0.104060  -0.113983  -0.027110
     32       0.115296  -0.012273   0.032702   0.140903   0.083620  -0.021313
     33      -0.109005  -0.042131  -0.113911   0.019650   0.020463  -0.013378
     34       0.055500  -0.084282   0.011245  -0.047547  -0.160601  -0.000323
     35       0.111988   0.085027  -0.049629   0.093238   0.119074  -0.105344
     36      -0.085368  -0.044661  -0.129167  -0.000078   0.006980   0.010449
     37       0.035852  -0.090191   0.042175   0.085063  -0.027184  -0.019170
     38       0.074139   0.091830  -0.074868  -0.054727  -0.020137  -0.092571
     39      -0.119742  -0.060324  -0.136590  -0.006973   0.003314   0.032653
     40      -0.057523  -0.024437  -0.000194   0.097608   0.089245   0.007266
     41      -0.049489   0.011553  -0.038733  -0.107291  -0.081363   0.003145
     42      -0.020524  -0.073299  -0.129404   0.031645  -0.020074  -0.022254
     43      -0.103089   0.076688  -0.085623  -0.047779   0.064397   0.004108
     44      -0.136939  -0.100206   0.055255   0.020277  -0.013267   0.093517
     45       0.074664  -0.055590  -0.122054   0.050603  -0.019613  -0.066090
     46      -0.094970   0.016799  -0.058052  -0.099125  -0.072327   0.057519
     47      -0.095468  -0.031553   0.029895   0.082151   0.122491   0.016947
     48       0.093547  -0.036823  -0.128685   0.030683  -0.033805  -0.071453
     49      -0.011133  -0.085516   0.035156   0.066282  -0.017359   0.008230
     50       0.017909   0.089661  -0.058226  -0.058450   0.006657  -0.048006
     51      -0.026135  -0.035954  -0.110704  -0.003124  -0.007414   0.014516
     52       0.060647  -0.071211   0.039008   0.117064   0.050109  -0.069950
     53       0.080304   0.077714  -0.064752  -0.087006  -0.104887  -0.041953
     54      -0.033756  -0.041322  -0.086905  -0.002238  -0.005317   0.041584
     55       0.121342   0.025881  -0.007691   0.054565   0.097482  -0.110438
     56       0.091669  -0.013093   0.010139  -0.027960  -0.149145   0.038302
     57      -0.070773  -0.042220  -0.055199   0.008516   0.009595   0.020626
     58       0.135473   0.088314  -0.063563  -0.058529  -0.006691  -0.046521
     59       0.091743  -0.082411   0.065628   0.085736  -0.022833   0.020753
     60      -0.087393  -0.030506  -0.009703  -0.007132   0.028465   0.031048
     61       0.095364   0.154469  -0.062558  -0.090199  -0.010361   0.099592
     62       0.017607  -0.130204   0.116971   0.061794   0.059926   0.033673
     63       0.013457   0.045486   0.127414  -0.048283   0.021985  -0.063174
     64      -0.078198  -0.016816   0.137270   0.022463  -0.050781   0.050880
     65      -0.062400   0.043686  -0.001919  -0.148538   0.191613  -0.032754
     66       0.043953   0.047533   0.136816  -0.023912  -0.004837  -0.046024
     67      -0.099833  -0.018335   0.106811  -0.025039  -0.029611  -0.098218
     68      -0.008524  -0.020728   0.015550   0.013566  -0.008637  -0.031570
     69       0.104676   0.069661   0.068074   0.017536  -0.022347   0.011756
     70      -0.068512  -0.026611   0.044191  -0.061240   0.026647  -0.117883
     71      -0.014182   0.016466   0.028690   0.190494  -0.221837   0.018899
     72       0.082431   0.105247   0.060483  -0.055491   0.087570   0.028661
     73       0.201133  -0.033719  -0.301465   0.091536   0.051673   0.403510
     74      -0.064929   0.095179  -0.144895  -0.127875   0.249089   0.101058
     75       0.200266   0.176019  -0.139984   0.039993   0.129844   0.376183
     76       0.145690  -0.120108  -0.184528  -0.028283   0.082481   0.217337
     77      -0.195851   0.278301  -0.027789   0.131144  -0.080878  -0.165369
     78      -0.004605   0.078519   0.154491   0.031514   0.003213   0.162306
     79      -0.068017  -0.060821   0.078872  -0.075385   0.002671  -0.130723
     80      -0.094779   0.122213  -0.025407   0.219340  -0.159993  -0.053409
     81      -0.024838   0.142151   0.191685   0.044334  -0.005613   0.141658
     82      -0.035242  -0.095875   0.119347  -0.064863   0.056361   0.084121
     83      -0.228520   0.366494  -0.024954   0.246087  -0.202266   0.032201
     84       0.014488  -0.069341  -0.097640  -0.008834  -0.092074  -0.089993
     85       0.025630   0.059164   0.032255   0.234764   0.320775   0.083247
     86      -0.011092  -0.007785   0.030914  -0.311450  -0.232394   0.150576
     87       0.077586  -0.049899  -0.071555   0.069953  -0.084644  -0.147521
     88       0.085753   0.031140  -0.080573  -0.042772   0.026255  -0.079071
     89       0.105202  -0.031757   0.058412   0.062225  -0.047201   0.073634
     90      -0.250289  -0.068460  -0.138223  -0.038211   0.035886   0.120075
     91      -0.089529  -0.003217  -0.006259   0.129882   0.161318   0.017257
     92      -0.081420  -0.013412  -0.033067  -0.154757  -0.137354   0.035754
     93      -0.037716  -0.090165  -0.118731   0.038337  -0.022017  -0.006528
     94      -0.143410   0.187036  -0.164983  -0.121531   0.119342  -0.022520
     95      -0.222665  -0.223879   0.138082   0.077317  -0.039033   0.188560
     96       0.143593  -0.055630  -0.106545   0.079170  -0.017898  -0.102772
     97      -0.132114   0.059305  -0.114130  -0.236491  -0.189980   0.103468
     98      -0.140879  -0.085106   0.078907   0.216624   0.267610   0.007589
     99       0.219966  -0.031699  -0.140818   0.059499  -0.069486  -0.163119
    100       0.022685  -0.118892   0.047466   0.073531  -0.073519   0.005982
    101       0.055629   0.125254  -0.077670  -0.049214   0.041779  -0.097899
    102      -0.171030  -0.027120  -0.007794  -0.039851   0.076674   0.099844
    103       0.077313   0.184884  -0.088755  -0.146996  -0.028538   0.151361
    104      -0.003640  -0.160006   0.139708   0.103076   0.099313   0.016226
    105       0.006510   0.038785   0.149452  -0.069919   0.021043  -0.154644
    106      -0.074749  -0.013327   0.123625   0.047199  -0.062327   0.107647
    107      -0.074870   0.034169  -0.014623  -0.229635   0.290380  -0.007472
    108       0.137607   0.106924  -0.005683   0.031301  -0.002248   0.042278
    109      -0.055551  -0.069072   0.060998  -0.067295   0.016534  -0.119934
    110      -0.119518   0.184078   0.031122   0.204412  -0.195627  -0.010740
                 18         19         20         21         22         23    
      0      -0.004814   0.019210  -0.008683   0.023172   0.058853  -0.046716
      1       0.003493  -0.054003  -0.106454   0.088284  -0.032587  -0.000774
      2      -0.104027   0.059089   0.001026  -0.000227   0.085259  -0.088376
      3       0.038652  -0.011240   0.061148  -0.050567   0.007160   0.027545
      4      -0.030389  -0.000928   0.033080  -0.055616   0.010466  -0.005492
      5       0.128366  -0.005904   0.057804   0.106855  -0.000397   0.070789
      6       0.036731  -0.004724   0.057507  -0.039748  -0.004633   0.030023
      7      -0.023321  -0.001733   0.031611  -0.071833   0.001876  -0.001468
      8       0.109782  -0.036676   0.068754   0.129824  -0.004635   0.084875
      9      -0.000259   0.000844   0.005744  -0.052104  -0.012433  -0.007749
     10       0.023611   0.006655   0.041107   0.018745  -0.002237   0.031548
     11      -0.081330   0.004443  -0.060295  -0.133665  -0.016069  -0.100178
     12      -0.033667   0.002825  -0.075609   0.044174   0.002064  -0.029938
     13       0.023928   0.009196   0.004345   0.057901  -0.016550   0.011882
     14      -0.127303   0.004206  -0.067432  -0.115060   0.045628  -0.081651
     15      -0.006401   0.002662  -0.052759   0.091640  -0.006881   0.001675
     16      -0.035608   0.006240  -0.107327   0.061735   0.006341  -0.057567
     17       0.045602   0.003753   0.048005   0.127860  -0.022084   0.089564
     18      -0.010216   0.002611  -0.030949   0.084155  -0.009806  -0.002386
     19      -0.028424   0.002929  -0.108894   0.042617   0.008452  -0.044819
     20       0.030160  -0.004070   0.057165   0.129748  -0.025806   0.071055
     21       0.007018   0.001416  -0.036911   0.068304  -0.012285  -0.021516
     22      -0.048818  -0.015630   0.049871  -0.070866   0.023136   0.058171
     23       0.180494   0.002721   0.013924  -0.030271  -0.021271  -0.072005
     24      -0.029912   0.004455  -0.042690   0.059473  -0.010866  -0.046393
     25       0.031417  -0.011945   0.066838  -0.084677   0.027577   0.106206
     26       0.094828  -0.003178   0.015272  -0.062841  -0.022106  -0.127419
     27      -0.058906   0.004287  -0.047327   0.065632  -0.001524  -0.004789
     28       0.092532   0.001580   0.046724  -0.025054  -0.037535  -0.146314
     29      -0.055974  -0.009361   0.006328  -0.098054   0.048048   0.138914
     30      -0.010470   0.000633  -0.008796   0.031467  -0.003250  -0.006071
     31       0.023350   0.003527  -0.024358  -0.034061  -0.002319  -0.051240
     32      -0.039180  -0.004726   0.043622  -0.027768   0.007134   0.037691
     33       0.005569   0.000775  -0.001883   0.029512  -0.008390  -0.018768
     34      -0.087924   0.000840  -0.057855  -0.005267   0.036670   0.108145
     35       0.031963   0.004554   0.038226   0.055566  -0.041203  -0.105159
     36       0.033721  -0.001352   0.021010  -0.060388   0.004689  -0.007692
     37      -0.111692  -0.002353   0.013572   0.060965   0.002184   0.055137
     38       0.040218   0.011278  -0.066477   0.063106  -0.010732  -0.044878
     39       0.043610  -0.003490   0.033647  -0.106915   0.014256   0.013145
     40      -0.026268  -0.005357   0.088506   0.020145  -0.028688  -0.050007
     41       0.035472   0.006137  -0.083481  -0.030161   0.034198   0.072944
     42      -0.013238  -0.000711   0.032575  -0.046450   0.006025   0.016618
     43       0.116926   0.005004  -0.038644  -0.068906   0.015874   0.001287
     44      -0.056903  -0.011217   0.090531  -0.028389  -0.007260   0.006855
     45      -0.022537   0.002768   0.008419   0.001424   0.000969   0.016574
     46       0.001116  -0.003880   0.005427  -0.053007   0.023027   0.075747
     47       0.052887  -0.001102   0.034767  -0.019041  -0.017313  -0.065255
     48      -0.020027   0.003588  -0.010111   0.006116   0.006642   0.034683
     49      -0.086591  -0.005672   0.069207   0.071354  -0.035435  -0.064331
     50       0.060996   0.008782  -0.098537   0.002957   0.031340   0.086985
     51       0.018688  -0.002693   0.025472  -0.047408   0.004720   0.010613
     52      -0.023527   0.005535  -0.034460   0.067360  -0.007027  -0.008760
     53      -0.056947   0.002066  -0.016534   0.067145  -0.002566   0.029065
     54       0.011892  -0.005847   0.044139  -0.049706  -0.000083  -0.001563
     55       0.115498   0.014929  -0.125943  -0.014356   0.026732   0.031652
     56      -0.171688  -0.012436   0.113744   0.058359  -0.032243  -0.039034
     57      -0.000547  -0.001462  -0.007360   0.034502  -0.004894  -0.001399
     58       0.051983   0.002379  -0.003095  -0.036889   0.002228  -0.002489
     59      -0.056127  -0.004277   0.025924  -0.031644   0.003279  -0.009635
     60       0.021905   0.001154  -0.035230   0.055616  -0.003506  -0.001766
     61      -0.037582  -0.019551   0.160438  -0.034107  -0.023598  -0.015111
     62       0.144312   0.008316  -0.105908  -0.102623   0.031924  -0.001956
     63      -0.027778  -0.001701   0.011189  -0.000172  -0.002456   0.011431
     64       0.046051   0.010796  -0.073358   0.043667  -0.011477  -0.035779
     65      -0.232854  -0.010774  -0.015930   0.073315   0.042236   0.042342
     66      -0.005660   0.002301   0.020694  -0.057322  -0.005634  -0.007027
     67       0.030764   0.008810   0.026177   0.027806  -0.003377   0.023458
     68      -0.112173   0.010604  -0.067232  -0.127503  -0.020684  -0.086631
     69       0.045329  -0.006793   0.062535  -0.063761   0.008308   0.019293
     70      -0.037499   0.004232   0.044859  -0.036909   0.009188   0.006336
     71       0.172461   0.015388   0.011996   0.020839  -0.027614   0.022788
     72      -0.093712  -0.055800  -0.112433  -0.236092  -0.297521   0.184741
     73       0.021734   0.122174  -0.126358   0.321115   0.128091  -0.123920
     74      -0.367632   0.144380  -0.425197  -0.403445  -0.838299   0.469507
     75      -0.110733  -0.096221  -0.312207   0.038666  -0.162261   0.003475
     76      -0.029593   0.462024   0.084307   0.121079   0.032525   0.022706
     77      -0.018358  -0.827026  -0.267800  -0.065965   0.005591  -0.127781
     78      -0.058107   0.000607  -0.154269   0.118233   0.019229  -0.054929
     79       0.042402   0.010815   0.056444   0.012465  -0.036918   0.026884
     80      -0.144363   0.002709  -0.070041  -0.142843   0.112484  -0.071193
     81       0.013988   0.001431  -0.080905   0.129969  -0.004721   0.013475
     82      -0.069918   0.003928  -0.137298   0.051423   0.009641  -0.076012
     83       0.184383   0.008525   0.092929   0.219642  -0.029663   0.161227
     84      -0.064601   0.006842  -0.057578   0.061990  -0.012839  -0.072099
     85       0.064951  -0.013941   0.089384  -0.095349   0.045955   0.208259
     86       0.100447  -0.004199   0.007637  -0.055621  -0.041947  -0.219489
     87      -0.123649   0.009180  -0.082808   0.098421   0.002911   0.007548
     88       0.145512   0.007750   0.072106   0.025717  -0.078710  -0.263350
     89      -0.142041  -0.012901  -0.037148  -0.131103   0.090533   0.259116
     90       0.102845  -0.009725   0.071169  -0.213601   0.027528   0.026580
     91       0.004846  -0.008218   0.153639   0.018417  -0.062953  -0.156213
     92       0.033095   0.005931  -0.130748  -0.079082   0.074630   0.185223
     93      -0.025635  -0.002903   0.048027  -0.052612   0.005792   0.020906
     94       0.262428   0.014246  -0.112460  -0.119608   0.022946  -0.051062
     95      -0.166433  -0.025923   0.195215  -0.045420  -0.010992   0.043775
     96      -0.042513   0.005138  -0.010511   0.054694  -0.006646   0.009056
     97      -0.017179  -0.007267   0.007786  -0.096371   0.045284   0.150097
     98       0.102167   0.000072   0.057225  -0.035840  -0.034946  -0.148046
     99      -0.070871   0.010621  -0.059143   0.090319   0.005106   0.053054
    100      -0.169932  -0.010421   0.137260   0.133525  -0.069212  -0.126897
    101       0.114250   0.017500  -0.193225  -0.010684   0.063848   0.159438
    102       0.065359  -0.003701  -0.016726   0.033181   0.001326   0.011882
    103      -0.051210  -0.027931   0.250418   0.001628  -0.061272  -0.105538
    104       0.179259   0.014160  -0.183848  -0.149495   0.070656   0.091647
    105      -0.016772  -0.000766   0.072149  -0.049178   0.004321   0.042986
    106       0.051736   0.012181  -0.114344   0.064364  -0.024052  -0.062684
    107      -0.338489  -0.023693  -0.027074   0.187811   0.111533   0.089707
    108       0.014205   0.016711   0.083954  -0.120943  -0.011509   0.052623
    109       0.005390  -0.037015   0.046068   0.009975   0.050082  -0.030068
    110      -0.006138   0.192998  -0.020136  -0.148958  -0.212918   0.168165
                 24         25         26         27         28         29    
      0      -0.093944  -0.010619  -0.002469  -0.056226  -0.025192  -0.007804
      1       0.013904   0.002956   0.006354  -0.041053  -0.014655  -0.005963
      2       0.012132  -0.060227  -0.018900   0.012009   0.002906   0.000394
      3      -0.039795   0.024021   0.013772   0.024236   0.010992   0.005176
      4       0.055157  -0.021351   0.006954   0.082888   0.034645   0.011920
      5       0.034197   0.065926   0.033005  -0.009570   0.003939   0.001753
      6      -0.048395   0.016913  -0.004846  -0.034397  -0.012896  -0.004414
      7       0.052702  -0.005591   0.005939   0.081175   0.031902   0.011043
      8       0.025193   0.016145   0.028106  -0.017480   0.005932   0.002354
      9      -0.046587  -0.018328  -0.014296  -0.049387  -0.023394  -0.008859
     10       0.019830   0.040873  -0.011380  -0.031487  -0.011155  -0.004371
     11      -0.013374  -0.160517   0.000155   0.030748  -0.002813  -0.001815
     12       0.012902   0.026190   0.001550  -0.009488  -0.002925  -0.001527
     13       0.010920  -0.048729  -0.011008  -0.042171  -0.014531  -0.005591
     14       0.026937   0.175772   0.010876   0.054743   0.000265   0.000550
     15       0.026652  -0.028209   0.001469  -0.015919   0.002164  -0.000337
     16      -0.050816   0.026222   0.010451  -0.008509  -0.010949  -0.001923
     17      -0.020677  -0.106848  -0.004487  -0.084139  -0.010719  -0.004241
     18       0.070879  -0.028034   0.002686   0.027616   0.012831   0.003976
     19      -0.067874   0.026697   0.012433  -0.019076  -0.006950  -0.000879
     20      -0.033872  -0.086264  -0.013209  -0.034861  -0.009600  -0.003022
     21       0.123448  -0.017897   0.005167   0.070258   0.016522   0.004185
     22       0.054656  -0.008608   0.008010   0.056542   0.078262   0.033271
     23       0.008875   0.007192   0.002096   0.108573  -0.030065  -0.015416
     24       0.256031  -0.010275  -0.001228  -0.006699  -0.009129  -0.001619
     25       0.118066  -0.032823  -0.002212   0.065063   0.059625   0.007094
     26       0.016329   0.040920   0.009861   0.079301  -0.013231   0.011896
     27       0.251423  -0.020198  -0.005230  -0.047578  -0.006052  -0.006143
     28       0.080321   0.040648  -0.002601  -0.043199  -0.095397  -0.013648
     29       0.086137  -0.024763  -0.009495  -0.088372   0.056090  -0.001538
     30       0.118842  -0.012717   0.000555   0.046860  -0.011801  -0.011838
     31       0.080941   0.020970  -0.004366  -0.174373   0.094185   0.088736
     32       0.078682  -0.007703  -0.011470  -0.023361  -0.169614  -0.120676
     33       0.060875  -0.006298   0.001517   0.032931   0.011437   0.024120
     34      -0.017364  -0.017358  -0.002758   0.009171  -0.037259  -0.148739
     35      -0.052587   0.019714  -0.000496  -0.063020   0.017734   0.151668
     36       0.009793   0.012483  -0.006080  -0.088520  -0.016883  -0.031728
     37      -0.045990  -0.023791  -0.000580   0.070433  -0.069821   0.157498
     38      -0.065434   0.010427   0.008611   0.031726   0.100893  -0.157642
     39      -0.033457   0.019456  -0.011066  -0.150475  -0.057820  -0.007419
     40      -0.106733   0.009757   0.000184  -0.016772   0.056853  -0.071550
     41      -0.080012  -0.003152   0.003128   0.043493  -0.052178   0.079884
     42      -0.151324   0.016402  -0.007458  -0.107523  -0.034595  -0.019762
     43      -0.059422   0.018641   0.000875  -0.031768  -0.033314   0.046483
     44      -0.030616  -0.003074  -0.004062  -0.023955   0.021901  -0.054624
     45      -0.241251   0.011752   0.003986   0.024477   0.016332   0.001487
     46      -0.075577  -0.010810  -0.002351   0.027803  -0.028664   0.024785
     47      -0.061890   0.023464   0.005083  -0.013395   0.044651  -0.021811
     48      -0.207889   0.003821   0.003901   0.046167   0.007267   0.013997
     49      -0.089226   0.006530   0.009846   0.067090   0.094903  -0.043565
     50      -0.032176  -0.021649   0.003178   0.110819  -0.039431   0.068447
     51      -0.068265   0.005271   0.001114   0.009801   0.019627  -0.021623
     52      -0.077440  -0.000879   0.007809   0.092855  -0.046107   0.182861
     53      -0.058292  -0.017407   0.003856   0.063286   0.096957  -0.177462
     54      -0.012466   0.004085   0.001063   0.009291   0.014928   0.023078
     55       0.042475   0.000345  -0.000266   0.013645  -0.031110  -0.144703
     56       0.035821  -0.005456  -0.002383  -0.047481   0.019838   0.148749
     57       0.029137  -0.012601   0.007902   0.117164   0.018463   0.000113
     58       0.061355  -0.001235  -0.007012  -0.130120   0.098356   0.076144
     59       0.052154   0.013835  -0.003446  -0.012361  -0.148620  -0.098435
     60       0.050088  -0.017193   0.011060   0.141108   0.057607   0.019880
     61       0.080893  -0.008800  -0.001877   0.079667  -0.061443  -0.018641
     62       0.064559   0.014165   0.005626  -0.021894   0.095107   0.030466
     63       0.002580   0.022306  -0.005922  -0.021237  -0.006806  -0.002391
     64      -0.098395  -0.027420   0.001657  -0.058159  -0.027763  -0.008646
     65      -0.005975   0.132038  -0.007838  -0.055115  -0.006300  -0.001513
     66      -0.023978  -0.029291  -0.003570  -0.011110  -0.006635  -0.002421
     67      -0.007761   0.052893  -0.017892  -0.060895  -0.027172  -0.010354
     68      -0.030454  -0.201739  -0.004629  -0.022017  -0.010402  -0.004831
     69      -0.011944   0.018888   0.000375   0.067528   0.027420   0.010742
     70       0.024292  -0.016040   0.015631  -0.000134   0.000684  -0.000434
     71       0.016247   0.068863  -0.090264   0.035277   0.008937   0.002291
     72      -0.046376   0.100100  -0.043946   0.057548   0.023805   0.009625
     73      -0.048928  -0.041889  -0.014737  -0.203946  -0.081772  -0.030510
     74       0.044227   0.240559  -0.207158   0.053284   0.027453   0.007607
     75      -0.170075   0.028119  -0.066988  -0.211479  -0.092832  -0.033083
     76       0.052811   0.015104  -0.054140   0.008875   0.012919   0.003721
     77      -0.035490  -0.082709   0.103313  -0.038086  -0.028748  -0.010378
     78       0.024368   0.092446   0.024162   0.029916   0.014851   0.006164
     79      -0.005027  -0.146068  -0.028973  -0.075182  -0.028040  -0.011399
     80       0.076540   0.585349   0.032270   0.095901   0.007826   0.004198
     81      -0.029806  -0.020885   0.007161  -0.053775  -0.009003  -0.005627
     82      -0.081445   0.024057   0.010402  -0.015846  -0.018050  -0.004741
     83      -0.025684  -0.085611   0.004835  -0.123215  -0.006028  -0.002857
     84       0.296457   0.003181  -0.007770  -0.116754  -0.028679  -0.000390
     85       0.108303  -0.070425  -0.005892   0.203062  -0.033611  -0.079413
     86      -0.023258   0.069837   0.022960   0.057512   0.125016   0.115190
     87       0.328970  -0.023995  -0.015373  -0.218523  -0.015248  -0.006542
     88       0.083305   0.062026  -0.006589   0.040574  -0.376626  -0.151276
     89       0.128826  -0.047451  -0.011121  -0.262448   0.325110   0.132370
     90      -0.027765   0.030976  -0.016620  -0.217159  -0.101553   0.027433
     91      -0.123203   0.036123   0.002929  -0.096287   0.238891  -0.365924
     92      -0.058424  -0.024267  -0.002143   0.092968  -0.254148   0.390754
     93      -0.132303   0.014008  -0.009697  -0.119590  -0.050634  -0.006069
     94       0.022542   0.045009   0.001888  -0.127651   0.018107  -0.072922
     95       0.066333  -0.024817  -0.016651  -0.060990  -0.080532   0.054807
     96      -0.255921   0.004487   0.011779   0.123113   0.042546   0.036031
     97      -0.058191  -0.027643  -0.011417  -0.026908   0.005821  -0.141251
     98      -0.069192   0.054578   0.006076  -0.076608  -0.033710   0.140459
     99      -0.274928  -0.006578   0.007777   0.110388  -0.006755   0.061733
    100      -0.127311   0.011272   0.012680   0.037208   0.281623  -0.343248
    101      -0.036727  -0.032065   0.002685   0.177753  -0.230968   0.391022
    102       0.056631  -0.015518   0.019180   0.271671   0.133841   0.054345
    103       0.067522   0.022925   0.002300   0.280738  -0.308063  -0.144075
    104       0.080118  -0.016366   0.005455  -0.154953   0.368892   0.167507
    105       0.017010   0.095350  -0.021629  -0.036290  -0.008617  -0.003122
    106      -0.113302  -0.126505   0.011513  -0.053495  -0.025837  -0.007921
    107       0.048545   0.559317  -0.003542  -0.007823  -0.004940  -0.000666
    108       0.025918   0.011149   0.192640   0.118122   0.049777   0.020736
    109       0.006168  -0.008535  -0.229507   0.040155   0.019810   0.004462
    110       0.066070   0.041103   0.909598  -0.224507  -0.112425  -0.033841
                 30         31         32         33         34         35    
      0       0.073867   0.098999   0.008729   0.144638  -0.032953   0.017110
      1      -0.134570   0.033882  -0.025382  -0.066027   0.024595  -0.006293
      2      -0.051500  -0.010937  -0.007343  -0.046991   0.013524  -0.007403
      3       0.151644  -0.035351   0.023407   0.041290  -0.004816   0.006999
      4       0.045118  -0.134581   0.010556  -0.132488   0.036958  -0.010216
      5      -0.020638  -0.023798  -0.005889  -0.037729   0.011108  -0.003472
      6      -0.004479   0.077176  -0.030045   0.021726   0.037997   0.032568
      7       0.045102  -0.112978   0.013691  -0.105489   0.023938  -0.020902
      8       0.021811  -0.054131  -0.013956  -0.025879   0.024975   0.050785
      9      -0.095071   0.114441  -0.039939   0.001055   0.031086   0.006128
     10      -0.076561   0.071508  -0.026126   0.053516  -0.015980   0.029179
     11      -0.014087   0.015462   0.021125   0.008473  -0.043431  -0.076244
     12      -0.149835  -0.046546  -0.022241  -0.219098   0.064192  -0.037843
     13      -0.060469   0.019554  -0.011439   0.042829  -0.041482   0.014790
     14      -0.028328   0.059144   0.049390   0.048040  -0.071455  -0.102174
     15      -0.119883  -0.090139  -0.036304  -0.223966   0.077620   0.005808
     16       0.158517  -0.078900   0.100047   0.067378  -0.078944  -0.081392
     17       0.117244  -0.062245  -0.031085   0.068733   0.024768   0.125931
     18      -0.081338  -0.098100   0.023221  -0.065153  -0.056526  -0.069467
     19       0.148274  -0.063082   0.039821   0.015955   0.023774   0.045170
     20       0.047364   0.016930   0.041813   0.017857  -0.092057  -0.227964
     21      -0.087661  -0.071071   0.027908  -0.001958  -0.076216  -0.031031
     22       0.028348   0.030316  -0.116713  -0.022365   0.037328   0.136447
     23      -0.008870   0.103198   0.075690  -0.059191  -0.065964  -0.119082
     24       0.043526   0.029318  -0.004797  -0.010633  -0.094343   0.055479
     25       0.030660   0.140742  -0.031105  -0.023559  -0.058412  -0.027875
     26       0.044382   0.070078  -0.046509  -0.055015   0.045300   0.112990
     27       0.063317   0.028576   0.005158   0.018369  -0.082787   0.018132
     28       0.046999  -0.006646   0.012570   0.046857   0.056842   0.090104
     29       0.015851   0.028869  -0.006091   0.063769  -0.013151  -0.073881
     30       0.102455   0.110657  -0.013485   0.020673  -0.025457   0.035329
     31       0.008433  -0.047557  -0.000865   0.044828   0.022672  -0.017605
     32      -0.019042  -0.060958   0.043482   0.030525   0.025332  -0.018365
     33       0.122724   0.138999  -0.015023  -0.022578   0.024993   0.023593
     34       0.053567   0.013330  -0.084132  -0.051582   0.140226  -0.121744
     35       0.016165   0.028321   0.079588  -0.087607   0.176077  -0.024943
     36       0.058134   0.020927  -0.012336  -0.029190   0.179473  -0.067987
     37       0.046600   0.100295   0.054205  -0.092157   0.054722  -0.016810
     38       0.069733   0.047948  -0.097710  -0.051362   0.018337  -0.019885
     39       0.058486  -0.003618  -0.015939  -0.100074   0.145939  -0.090906
     40      -0.022117   0.028394   0.101513  -0.105460  -0.165007   0.103444
     41       0.001994  -0.029296  -0.123702  -0.030452  -0.229240   0.003019
     42       0.078268   0.051802  -0.002003  -0.243595  -0.112906  -0.005435
     43      -0.015362  -0.080357  -0.128487   0.018051  -0.105478  -0.037528
     44      -0.067804  -0.009239   0.152915  -0.016073  -0.025556   0.076145
     45      -0.051738  -0.033423  -0.022704  -0.030320  -0.183339   0.061327
     46      -0.103625  -0.036817   0.143130   0.032798  -0.018623   0.088939
     47      -0.047802  -0.096051  -0.127042   0.098638  -0.054212  -0.041510
     48      -0.056704  -0.023301   0.012736   0.003292  -0.093023   0.055826
     49      -0.017705  -0.013618  -0.102143   0.128142   0.175570  -0.089445
     50      -0.037610   0.033665   0.107449   0.067601   0.235320   0.020629
     51      -0.097976  -0.080291   0.031046   0.137784   0.131760  -0.018920
     52       0.028041   0.019800  -0.080165   0.030337   0.075476  -0.014702
     53       0.013704   0.078022   0.062783  -0.019404   0.056563  -0.010373
     54      -0.116662  -0.106255   0.024024   0.185668   0.116743  -0.025443
     55      -0.019269  -0.048951   0.052398   0.055925  -0.073428   0.084319
     56      -0.008591  -0.024561  -0.022145   0.054053  -0.145295  -0.040992
     57      -0.036447  -0.017633  -0.001942   0.152999   0.004823   0.021233
     58      -0.074669  -0.041374   0.123545   0.047087  -0.067285  -0.049402
     59      -0.019070  -0.126645  -0.083196   0.057746  -0.017669   0.058890
     60      -0.041501  -0.005512   0.010522   0.108703  -0.012543   0.006104
     61      -0.046091   0.015796  -0.037107  -0.041770  -0.063117  -0.038780
     62      -0.013852   0.009360   0.003034  -0.075585   0.000938   0.074815
     63      -0.035952   0.011960   0.006768   0.047888  -0.038252  -0.009060
     64       0.137844   0.023247   0.057133   0.085970  -0.023618  -0.038605
     65       0.053484  -0.027385  -0.023343   0.012852   0.042435   0.086564
     66       0.004465   0.021298   0.001314   0.048277  -0.019068   0.011150
     67      -0.115754   0.141419  -0.033674   0.050743  -0.004888  -0.007068
     68      -0.016398   0.009754  -0.038543  -0.001749   0.060080   0.127687
     69       0.155876  -0.101302   0.036323  -0.013720  -0.008136  -0.018242
     70      -0.046961   0.015331  -0.032251  -0.045977   0.042288   0.032832
     71      -0.028467   0.017467   0.006856  -0.012434  -0.015276  -0.049622
     72       0.262761  -0.074268   0.042536   0.084896  -0.023689   0.022400
     73      -0.391935   0.291419  -0.084488   0.045247   0.012436   0.011083
     74       0.041226  -0.056272  -0.018480  -0.019417   0.019667   0.046999
     75      -0.141406   0.364345  -0.044597   0.292222  -0.059137   0.046006
     76      -0.089131  -0.047322  -0.027066  -0.112609   0.047291   0.006831
     77      -0.080287   0.065322   0.007670  -0.004811  -0.018390  -0.036633
     78      -0.051851  -0.219023   0.041811  -0.333788   0.075127  -0.070591
     79      -0.114328   0.123587  -0.053194   0.118239  -0.056270   0.019587
     80      -0.101687   0.147779   0.049720   0.072338  -0.024430   0.021421
     81      -0.003961  -0.120018  -0.027578  -0.265907   0.157147   0.066785
     82       0.207439  -0.076889   0.127265   0.052476  -0.091716  -0.172578
     83       0.145586  -0.116998  -0.101979   0.044218   0.192571   0.501881
     84       0.105093   0.023813  -0.005502   0.045999  -0.062291   0.083512
     85      -0.040200   0.190079   0.072588  -0.079621  -0.156012  -0.237620
     86       0.046147   0.016974  -0.171952  -0.065199   0.121420   0.330028
     87       0.000853  -0.141877   0.054353   0.120159  -0.113102  -0.013684
     88       0.013360  -0.076485   0.113411   0.047310   0.044616   0.046387
     89       0.013970   0.004734  -0.078175   0.118843  -0.018982  -0.046794
     90      -0.057265  -0.140135   0.018591   0.013025   0.146135  -0.083647
     91      -0.051388  -0.015094   0.098545  -0.065993  -0.164415   0.109643
     92      -0.025488  -0.051743  -0.103924  -0.011536  -0.231775   0.002190
     93       0.082589   0.062581   0.031566  -0.255571  -0.061462  -0.010144
     94       0.073661  -0.123472  -0.358733   0.061132   0.060919  -0.225697
     95      -0.064302   0.066901   0.403089  -0.086223   0.226234   0.099836
     96      -0.085409  -0.042238  -0.052481   0.124205   0.005806   0.030770
     97      -0.119022   0.028149   0.379723  -0.105787  -0.082668   0.179815
     98       0.016532  -0.165415  -0.384677   0.062769  -0.228594  -0.114196
     99       0.052396   0.101546  -0.024644  -0.126855  -0.045596   0.036316
    100       0.016249   0.051049  -0.083129   0.075878   0.179456  -0.128394
    101      -0.010275   0.040571   0.067321   0.045522   0.259613   0.048380
    102       0.025360   0.171025  -0.037119   0.067486  -0.000468   0.047035
    103      -0.014615   0.044163  -0.073876  -0.052155  -0.077406  -0.068355
    104      -0.013683   0.063089   0.016784  -0.081212   0.021156   0.123021
    105      -0.180706   0.159298  -0.054376   0.074002  -0.007615   0.040712
    106       0.227265  -0.069265   0.095311   0.071188  -0.049221  -0.084226
    107       0.095522  -0.068424   0.000597   0.001583   0.084296   0.195063
    108       0.278000  -0.258211   0.076644  -0.132327   0.021306  -0.044963
    109      -0.043598   0.010890  -0.044823  -0.032931   0.043191   0.048154
    110      -0.197504   0.224039   0.019461   0.053437  -0.050395  -0.093420
                 36         37         38         39         40         41    
      0       0.063091  -0.011635   0.026787   0.237653  -0.051680   0.042853
      1      -0.049869   0.030175  -0.013756  -0.143668   0.009798  -0.006613
      2      -0.027234   0.010630  -0.010940  -0.072705  -0.020590  -0.127105
      3       0.009864   0.025833   0.018839   0.118748  -0.007934   0.145896
      4      -0.069884   0.058348  -0.010146  -0.003016  -0.065659  -0.152505
      5      -0.020682   0.015023   0.012788  -0.121963   0.170068   0.589629
      6      -0.059767   0.116947  -0.006438  -0.082554  -0.139319  -0.021881
      7      -0.057280   0.050658   0.006048  -0.035405  -0.003732   0.066024
      8       0.011068  -0.019066  -0.040178   0.054465  -0.057036  -0.266649
      9      -0.063689   0.085008   0.007367  -0.099709  -0.064339  -0.003228
     10       0.063761  -0.094435  -0.007090   0.068461   0.077019  -0.001875
     11       0.004925  -0.017647   0.064900   0.028279   0.018077  -0.007969
     12      -0.120040   0.046102   0.012232   0.139165   0.087979   0.014476
     13       0.126025  -0.212972   0.004371   0.235282   0.233309  -0.018035
     14       0.031616  -0.045447   0.058408   0.022879   0.059550   0.040375
     15      -0.102281   0.046327  -0.003728   0.113888   0.049334   0.002380
     16       0.088811  -0.070112  -0.003449   0.005518   0.085723  -0.009980
     17       0.075905  -0.031514  -0.030167  -0.015757   0.015178  -0.022797
     18       0.072148  -0.149912   0.028141  -0.009365   0.075953  -0.025427
     19      -0.002293   0.047688  -0.059293  -0.029332  -0.042245   0.009674
     20      -0.070782   0.099278   0.205954  -0.016816  -0.022820  -0.000803
     21       0.142681  -0.126164  -0.018688  -0.017897  -0.093330   0.018676
     22       0.065399  -0.064917   0.160951  -0.047101  -0.039196  -0.002462
     23       0.044128   0.057013  -0.171194   0.036591  -0.027007   0.022650
     24       0.214683   0.172147   0.018197  -0.000835  -0.018174   0.009382
     25       0.026104   0.045569  -0.034499  -0.010753   0.098199  -0.035366
     26      -0.018634   0.000786   0.026413  -0.012847   0.088401  -0.021304
     27       0.146213   0.178045   0.003523   0.009928  -0.012246   0.007600
     28      -0.212932   0.014284   0.051796  -0.001948   0.248412  -0.090920
     29      -0.221897   0.022533  -0.073619   0.025803   0.230767  -0.074236
     30      -0.162220   0.028474  -0.008152   0.016034   0.050993  -0.002992
     31      -0.052191   0.013452   0.000328   0.005142   0.062969  -0.034466
     32      -0.022060   0.014307   0.000823   0.000181   0.066858  -0.024815
     33      -0.164867  -0.014338  -0.009266   0.014995   0.033138   0.008402
     34       0.136025  -0.029930  -0.007506  -0.014542   0.015464  -0.031926
     35       0.147127  -0.038434   0.027450  -0.019122   0.005567  -0.032788
     36       0.010342  -0.048444  -0.000895   0.001763  -0.028652   0.015440
     37       0.029418  -0.034160  -0.011660  -0.002484   0.007876  -0.009835
     38       0.025406  -0.033280   0.017515  -0.012410   0.008017  -0.021118
     39       0.010241  -0.130996  -0.008393  -0.004825  -0.100045   0.043920
     40      -0.012517  -0.010971   0.029037  -0.012554   0.020656  -0.024505
     41      -0.011619   0.024069  -0.024014  -0.000263   0.034544  -0.021832
     42      -0.003008  -0.149491   0.003349  -0.018241  -0.076709   0.014956
     43       0.008416   0.010303  -0.021495   0.002122  -0.008094   0.003545
     44       0.006535   0.013504   0.025730  -0.003433  -0.001477  -0.003585
     45       0.034206   0.124992  -0.000064   0.010931   0.096292  -0.022403
     46       0.029688   0.085044   0.031421   0.001875   0.054965  -0.015828
     47       0.024212   0.081703  -0.029690   0.013105   0.041043  -0.003357
     48       0.024110   0.100479   0.005532   0.008512   0.070820  -0.015241
     49       0.023909   0.052894  -0.030039   0.017224   0.019708   0.020786
     50       0.018118   0.019014   0.022286   0.007034   0.005792   0.017938
     51       0.075451   0.080572   0.000597   0.005548   0.007802  -0.004565
     52      -0.028276  -0.033017   0.013192  -0.001805  -0.031342   0.016927
     53      -0.037014  -0.031720  -0.024143   0.007857  -0.025841   0.024332
     54       0.049293   0.050534  -0.003547  -0.001420  -0.010402  -0.010995
     55      -0.178805  -0.133247   0.031007  -0.009168  -0.195361   0.071488
     56      -0.173955  -0.105491  -0.057216   0.009472  -0.180808   0.076521
     57      -0.164104  -0.095567   0.005711  -0.009037  -0.080811   0.008658
     58      -0.034825  -0.015883  -0.092219   0.021917  -0.112768   0.055230
     59      -0.005718  -0.049957   0.094420  -0.025669  -0.098478   0.022709
     60      -0.119269  -0.158276  -0.001654  -0.022337  -0.081561  -0.005602
     61       0.209744  -0.003616  -0.010462  -0.026491  -0.096093   0.036205
     62       0.198998   0.003794   0.019447  -0.007477  -0.089288   0.039922
     63       0.073180  -0.130674  -0.034553  -0.284313   0.140424  -0.099386
     64      -0.018888   0.122018  -0.016590  -0.164516  -0.086530  -0.016939
     65       0.011032   0.045467  -0.017222  -0.005027  -0.032608   0.025002
     66       0.050994  -0.084486  -0.039866  -0.187470   0.101512  -0.045799
     67      -0.014859   0.053408   0.036789   0.037014  -0.086177  -0.005816
     68       0.014974  -0.005976  -0.121406   0.035645  -0.001847   0.137068
     69       0.004670  -0.019203   0.006984   0.006833   0.052991  -0.044093
     70      -0.053338   0.093873   0.004499   0.130873  -0.125011   0.109042
     71      -0.026359   0.036492   0.039380   0.063528  -0.103347  -0.193397
     72       0.056905  -0.004677   0.025491   0.342823  -0.037808   0.073805
     73      -0.022999   0.011019  -0.018969  -0.277505  -0.001793   0.011743
     74       0.006997  -0.008073  -0.028111  -0.021815   0.019198   0.047409
     75       0.118060  -0.045456   0.021030   0.222668  -0.111799  -0.055944
     76      -0.067353   0.038341  -0.025435  -0.187487   0.026420   0.008834
     77      -0.012355   0.006559   0.009958  -0.001751  -0.030164  -0.113463
     78      -0.139956   0.045593  -0.049589   0.156969   0.137100  -0.017512
     79       0.136195  -0.205636   0.081455   0.221780   0.214302   0.015612
     80       0.072061  -0.123020  -0.213683   0.069480   0.004730  -0.055001
     81      -0.210312   0.273504  -0.123169  -0.007034  -0.107137   0.002745
     82       0.003600   0.084623   0.089570  -0.072490   0.023528   0.006551
     83       0.166451  -0.166533  -0.499447   0.049345  -0.016936  -0.074844
     84       0.016097   0.301740   0.085782   0.015433   0.171656  -0.055628
     85       0.119804   0.058540  -0.397602   0.069446  -0.006346   0.053132
     86       0.120179  -0.185011   0.379453  -0.131463  -0.018405  -0.048422
     87       0.184673   0.217283   0.040303   0.012631  -0.043842  -0.007506
     88      -0.209699   0.082317  -0.132886   0.063253   0.246293  -0.044370
     89      -0.206847  -0.021002   0.126255  -0.036687   0.229665  -0.132924
     90       0.032472  -0.061048  -0.009348   0.006154  -0.112923   0.068873
     91      -0.008091   0.010500   0.029837  -0.006705   0.011334  -0.018553
     92      -0.006235   0.041056  -0.025123  -0.000553   0.042601  -0.018016
     93      -0.002881  -0.179937   0.009989  -0.021777  -0.102494   0.023771
     94       0.003504  -0.108444  -0.081913   0.010922  -0.135923   0.060406
     95       0.002620  -0.123445   0.079039  -0.025243  -0.109280   0.028585
     96       0.058725   0.235184  -0.003741   0.030223   0.161690  -0.017550
     97       0.014966   0.020668   0.035369  -0.001035   0.016038  -0.010343
     98       0.012006   0.017417  -0.029685  -0.008669   0.005409  -0.016793
     99      -0.012308   0.007123   0.008208   0.004615   0.048326   0.005363
    100       0.009838   0.036207  -0.091894   0.037832   0.013284   0.046000
    101       0.013143  -0.013222   0.084685  -0.014651   0.002634   0.005263
    102      -0.127112  -0.158267   0.004448  -0.063858  -0.019100  -0.053103
    103       0.213825   0.030675  -0.165805   0.015814  -0.117362   0.034908
    104       0.191989  -0.026369   0.172632  -0.065442  -0.050342   0.023811
    105       0.043709  -0.153793  -0.064177  -0.355512   0.151997  -0.182324
    106      -0.005108   0.139876   0.026660  -0.133471  -0.081766   0.067395
    107       0.053957   0.023698  -0.224099   0.091815  -0.173374  -0.232346
    108      -0.066280   0.039871   0.002032  -0.047363   0.068323  -0.103789
    109      -0.040294   0.082878   0.000932   0.132194  -0.115391   0.168823
    110      -0.015591   0.031935   0.062945   0.128085  -0.185992  -0.415191
                 42         43         44         45         46         47    
      0      -0.041329  -0.001568   0.001065   0.000098   0.000662  -0.004032
      1       0.013817   0.002728   0.000707  -0.000595   0.000494   0.000817
      2       0.023069  -0.000873  -0.001530   0.001785  -0.000944   0.001703
      3      -0.036546   0.002798   0.003158  -0.002547   0.002259  -0.003809
      4       0.009354  -0.007423  -0.004132   0.003305  -0.001679   0.002946
      5      -0.051941   0.024462   0.015463  -0.012958   0.008368  -0.012137
      6      -0.037678  -0.009238  -0.005588   0.002047  -0.000275   0.012876
      7      -0.010291   0.013614   0.007988  -0.003986   0.004510  -0.009993
      8       0.025896  -0.059888  -0.034274   0.014968  -0.016843   0.041385
      9      -0.009556   0.032825   0.017647  -0.006924   0.009051  -0.017955
     10       0.020757  -0.043833  -0.025716   0.009261  -0.013642   0.033795
     11       0.019116   0.185480   0.104536  -0.034129   0.045576  -0.131795
     12       0.041220  -0.006633  -0.002696  -0.003315  -0.001974   0.019256
     13       0.085029   0.010888   0.005840  -0.006193   0.006991  -0.024204
     14       0.016348  -0.024051  -0.017017   0.011961  -0.033278   0.104774
     15       0.024158   0.016019   0.009372  -0.004925  -0.003018   0.015066
     16       0.043501  -0.026503  -0.012902  -0.003783   0.011967  -0.021518
     17       0.018690   0.096463   0.049797  -0.003103  -0.027885   0.091526
     18       0.021896  -0.015126  -0.009718   0.006244  -0.000852  -0.009636
     19      -0.017382   0.025310   0.015939  -0.005157  -0.001444   0.014515
     20       0.009926  -0.104088  -0.063364   0.021868   0.006099  -0.054449
     21      -0.054960   0.003177   0.003292  -0.009933   0.007151   0.005981
     22      -0.009207   0.002910  -0.010339   0.076531  -0.042495  -0.014533
     23      -0.006341  -0.003750   0.010917  -0.080787   0.046328   0.015929
     24       0.032008  -0.000949  -0.001971   0.009569  -0.006258  -0.000773
     25       0.026683  -0.010536  -0.000022  -0.068901   0.059644   0.009914
     26       0.021601   0.020118   0.003638   0.073474  -0.064017   0.001892
     27       0.023118  -0.004655  -0.002877  -0.006040  -0.002865  -0.004387
     28      -0.052672  -0.004842  -0.002064   0.020262   0.043283  -0.010337
     29      -0.058699   0.011113   0.004960  -0.030341  -0.039147   0.013168
     30       0.049172  -0.001694  -0.000892   0.020567  -0.008340  -0.011662
     31      -0.068577  -0.002972  -0.000616  -0.118607   0.023209   0.044213
     32      -0.060721   0.003976   0.001274   0.122592  -0.020429  -0.050089
     33       0.103388  -0.000861  -0.002574   0.002347  -0.002141  -0.002922
     34      -0.207072  -0.006381   0.012564   0.006585  -0.029932  -0.018000
     35      -0.209868   0.012023  -0.008963  -0.003315   0.028961   0.020260
     36       0.051291  -0.006796   0.004944  -0.013801  -0.012193  -0.004832
     37      -0.108488   0.041463  -0.036992   0.106597   0.069367   0.018692
     38      -0.107926  -0.041607   0.042142  -0.105830  -0.082752  -0.020859
     39       0.124964   0.005146  -0.006776  -0.000609   0.004192   0.001200
     40      -0.113578  -0.034843   0.045248  -0.022015   0.004749   0.011511
     41      -0.124853   0.040445  -0.045436   0.029159  -0.011408  -0.011123
     42      -0.037102   0.006083  -0.004495  -0.008724  -0.003552   0.002981
     43      -0.010982  -0.024236   0.042298   0.058791   0.041740   0.018079
     44      -0.008013   0.025699  -0.045096  -0.062603  -0.044289  -0.019426
     45       0.060512   0.002470  -0.006353   0.005464   0.009629  -0.000501
     46       0.051010  -0.033122   0.030289  -0.063530  -0.043399  -0.017428
     47       0.038406   0.032572  -0.034678   0.062486   0.050986   0.015041
     48       0.056356   0.003250  -0.008188  -0.005659   0.003886  -0.000581
     49       0.195020  -0.034562   0.046297   0.018065  -0.009805  -0.007118
     50       0.172939   0.033143  -0.053222  -0.026228   0.018105   0.009654
     51      -0.047352  -0.004147   0.008313   0.017284   0.004507   0.002709
     52       0.087556   0.028052  -0.056351  -0.101371  -0.063182  -0.022431
     53       0.090705  -0.030411   0.059185   0.105906   0.070552   0.026864
     54      -0.141249   0.003243   0.000906   0.004665  -0.010870  -0.001430
     55       0.099757  -0.010136   0.008130  -0.001980   0.030630   0.015853
     56       0.109614   0.010501  -0.008474   0.002377  -0.033700  -0.013648
     57      -0.145604   0.001930   0.000462  -0.011072   0.004540   0.008030
     58       0.030608   0.011965   0.019547   0.110978  -0.054666  -0.026276
     59       0.052451  -0.014996  -0.021562  -0.114524   0.052013   0.025926
     60      -0.220814   0.007441   0.004691   0.002616   0.003302   0.009243
     61       0.074594  -0.011957  -0.005058  -0.009155  -0.006570  -0.020713
     62       0.082134   0.011928   0.003903   0.020094  -0.003163   0.021845
     63       0.078074   0.006992   0.000858   0.004640  -0.005829  -0.004602
     64      -0.013342  -0.014368  -0.006567  -0.001318   0.003613  -0.002577
     65       0.001179   0.028354   0.014312   0.008604  -0.012006  -0.011515
     66       0.049442  -0.024686  -0.015440   0.003301  -0.004573   0.009193
     67      -0.027960   0.039439   0.021881  -0.002887   0.003084  -0.016531
     68      -0.055553  -0.163709  -0.086652   0.010377  -0.009297   0.054912
     69       0.034839   0.003874   0.001016   0.000099  -0.001104  -0.000059
     70      -0.079599  -0.007733  -0.001331  -0.002346   0.003283  -0.000242
     71       0.002577   0.019352   0.009927   0.002564  -0.000095  -0.008422
     72      -0.046711  -0.009757  -0.002204   0.000834  -0.000535  -0.004087
     73       0.008780   0.006044   0.001128  -0.001200   0.000950   0.006083
     74      -0.004293  -0.020661  -0.011248   0.002397  -0.003937   0.012904
     75      -0.047766  -0.006724  -0.002692   0.002785  -0.001183   0.003542
     76       0.018916  -0.008403  -0.005829   0.001100  -0.002060   0.008523
     77       0.014669   0.019877   0.010857  -0.002062   0.003978  -0.013186
     78       0.065645  -0.086294  -0.039874  -0.008909   0.038900  -0.099443
     79       0.081046   0.117809   0.057296  -0.002086  -0.044436   0.140033
     80      -0.053521  -0.435976  -0.221143   0.007208   0.153005  -0.543159
     81      -0.026594  -0.019790  -0.001846  -0.024695   0.041880  -0.119354
     82       0.045197   0.012831   0.001087   0.011135  -0.047564   0.146690
     83      -0.055545  -0.082970  -0.011847  -0.080246   0.229028  -0.640659
     84       0.011139  -0.018855  -0.009624  -0.004340   0.039984   0.001367
     85       0.023345   0.086923   0.033075   0.017840  -0.267190   0.067500
     86       0.051940  -0.074172  -0.026497  -0.013168   0.271036  -0.068943
     87      -0.095840  -0.024646  -0.006950  -0.057080   0.067697  -0.011905
     88      -0.103721   0.093365   0.010761   0.308254  -0.354036  -0.034561
     89      -0.077028  -0.094947  -0.009569  -0.338769   0.386553   0.033380
     90       0.308865  -0.026614   0.034114   0.027599   0.051721   0.019682
     91      -0.069087   0.168046  -0.260175  -0.273620  -0.265088  -0.118711
     92      -0.088323  -0.177354   0.279150   0.294128   0.280358   0.127478
     93      -0.016681  -0.037215   0.054235  -0.000930   0.011844   0.014716
     94       0.056055   0.282974  -0.371702   0.000508  -0.060557  -0.055032
     95       0.073121  -0.299779   0.395873  -0.002259   0.068223   0.065444
     96       0.258407  -0.044646   0.047143  -0.009142  -0.009607  -0.010903
     97      -0.063272   0.276613  -0.366392   0.017674   0.109379   0.035808
     98      -0.073954  -0.293361   0.391622  -0.020288  -0.114574  -0.037869
     99       0.203147  -0.029607   0.027958  -0.046768  -0.033132  -0.014057
    100       0.247219   0.197458  -0.216066   0.284164   0.293371   0.115735
    101       0.217997  -0.214337   0.225629  -0.312165  -0.301165  -0.119114
    102      -0.334438   0.015674   0.013960   0.043394  -0.011363  -0.013796
    103      -0.001118   0.046263  -0.007960  -0.360824   0.161033   0.206649
    104       0.105581  -0.040908   0.010722   0.378339  -0.171980  -0.207935
    105       0.073848   0.066987   0.036367  -0.005159   0.006852  -0.011124
    106      -0.009142  -0.093943  -0.054343   0.021169  -0.018468   0.000202
    107      -0.038061   0.368369   0.222356  -0.123405   0.104762  -0.004035
    108       0.068589   0.005358   0.000802  -0.000167  -0.001134   0.005970
    109      -0.091936  -0.013583  -0.004113  -0.002263   0.003251  -0.000738
    110       0.015105   0.045995   0.023996   0.002338   0.000572  -0.013626
                 48         49         50         51         52         53    
      0      -0.052655   0.003283   0.107892  -0.006932  -0.003319   0.003007
      1       0.025682  -0.001272  -0.055656   0.003547   0.001001  -0.001750
      2       0.018756  -0.001907  -0.037907   0.003863  -0.000212  -0.001295
      3      -0.022460   0.002593   0.036965  -0.004244   0.000529   0.001065
      4      -0.000003   0.001306   0.005827   0.002440  -0.003761  -0.001743
      5      -0.005352   0.002257   0.001887  -0.010493   0.001954   0.002845
      6       0.039313  -0.001295  -0.272261   0.039137   0.123961  -0.015353
      7      -0.001299  -0.002306  -0.012240   0.001164   0.004793  -0.000097
      8      -0.004497   0.010201   0.040932  -0.002175  -0.019984  -0.001071
      9       0.039149  -0.008960  -0.140854   0.013458   0.022433  -0.003579
     10       0.035701   0.003302  -0.062106  -0.002871  -0.034488  -0.000974
     11       0.007115  -0.036295   0.007335   0.002185  -0.012899   0.005978
     12       0.059033   0.015537  -0.008884  -0.007041  -0.071117  -0.007358
     13       0.109729  -0.014569  -0.145336  -0.002236  -0.088799  -0.002404
     14       0.016087   0.035546  -0.026516   0.001183  -0.011701  -0.012726
     15       0.012085   0.008506   0.066511  -0.010730  -0.062671   0.001622
     16       0.010453   0.002945  -0.076663   0.021949   0.144933  -0.010153
     17       0.001992   0.030399  -0.023877   0.017279   0.047547  -0.010289
     18      -0.062035  -0.005939   0.038047   0.001610   0.138131   0.009328
     19       0.001635   0.007587  -0.022123   0.021319  -0.010178  -0.011609
     20       0.007326  -0.035675  -0.045014  -0.078606  -0.007285   0.045007
     21      -0.097183   0.007282   0.009596   0.016402   0.128379   0.000597
     22      -0.024871  -0.054453  -0.023680  -0.028185  -0.014284   0.040046
     23       0.019666   0.059130  -0.000744   0.024645  -0.033217  -0.045602
     24      -0.090505  -0.011825  -0.044387  -0.001260  -0.085097  -0.007656
     25      -0.063071   0.050360  -0.013950   0.018660  -0.120443  -0.029546
     26      -0.061396  -0.054807  -0.013291  -0.014887  -0.095028  -0.000828
     27      -0.044740  -0.016857  -0.039443  -0.007371  -0.042501   0.000216
     28      -0.094748   0.067840   0.007609   0.032427   0.094041  -0.002098
     29      -0.082915  -0.073713   0.009624  -0.011133   0.114755   0.015708
     30       0.158212   0.019959   0.046214  -0.004687   0.026044  -0.000766
     31      -0.022646  -0.113469   0.004533  -0.023000   0.040330   0.041966
     32      -0.065776   0.117538  -0.021485   0.028254   0.013831  -0.039038
     33       0.214697   0.001054   0.073187  -0.010069   0.070505   0.016893
     34       0.039279   0.030159  -0.006934  -0.009004  -0.118488  -0.055184
     35       0.016003  -0.033512  -0.010824  -0.011089  -0.126190   0.032510
     36       0.074194   0.001520   0.022953  -0.012953  -0.032781  -0.018640
     37       0.109008   0.006776   0.027015   0.015428  -0.012096   0.117265
     38       0.084819  -0.000908   0.022796  -0.021537   0.035013  -0.121615
     39      -0.132841   0.001018  -0.034841   0.002124  -0.063411   0.001812
     40       0.052788  -0.027542   0.019614  -0.007466   0.119142  -0.057858
     41       0.061478   0.033789   0.014725   0.027484   0.088251   0.085586
     42      -0.120348   0.002154  -0.026877   0.024741   0.135231   0.016371
     43      -0.003251  -0.023251  -0.001681  -0.010026  -0.011529  -0.033976
     44       0.006161   0.024684  -0.003354   0.005265  -0.044181   0.030636
     45      -0.048275  -0.005232  -0.007583  -0.011827  -0.076808  -0.013320
     46      -0.044264   0.015889  -0.014835  -0.001655  -0.101362   0.023375
     47      -0.027544  -0.021753  -0.006068  -0.017597  -0.069027  -0.044140
     48      -0.022990  -0.005131  -0.002913  -0.009275  -0.048427  -0.015315
     49      -0.105393   0.023678  -0.015502   0.030192   0.088670   0.081770
     50      -0.089076  -0.027983  -0.004258  -0.005869   0.122812  -0.066806
     51       0.132726   0.003448   0.025925   0.001614   0.015413   0.021531
     52      -0.041811   0.006337  -0.004346  -0.013665   0.049319  -0.118706
     53      -0.051266  -0.007616  -0.011532   0.024728  -0.000224   0.130164
     54       0.153103   0.007233   0.027617   0.005807   0.061070   0.003464
     55       0.044446  -0.020414  -0.007468  -0.011143  -0.123530   0.026662
     56       0.012947   0.023004  -0.018565  -0.006431  -0.119575  -0.051750
     57       0.014295  -0.006562  -0.018889   0.002353  -0.041512  -0.005270
     58       0.090811   0.062398   0.004206   0.019915  -0.005667  -0.009288
     59       0.110387  -0.060961   0.040793  -0.029394   0.028753   0.018229
     60      -0.179080  -0.008676  -0.063996   0.013144  -0.063917  -0.004008
     61       0.078638   0.024432   0.053137  -0.015655   0.143067  -0.039308
     62       0.081407  -0.021277   0.022491   0.024355   0.098937   0.071632
     63      -0.020883  -0.009163   0.206101   0.004411  -0.048684   0.005073
     64      -0.020258   0.014929   0.101330  -0.063695  -0.111509   0.016872
     65       0.024346  -0.051933   0.051301   0.162962  -0.065450  -0.044870
     66       0.008108   0.003232   0.069634  -0.026503  -0.029805   0.010958
     67      -0.045602  -0.006708   0.124344   0.009262  -0.008575   0.001132
     68      -0.030617   0.037648  -0.006083  -0.072145   0.022111   0.017250
     69       0.050577  -0.005420  -0.054602  -0.000754  -0.056846  -0.000697
     70      -0.097058   0.010920   0.141589  -0.002319   0.086785   0.003477
     71      -0.025633  -0.006751   0.048564   0.021189   0.024957  -0.004091
     72      -0.067645   0.006908   0.205702  -0.022659  -0.066858   0.006950
     73       0.040667  -0.004340  -0.200923   0.027357   0.110822  -0.007885
     74       0.006951   0.003641  -0.026885   0.001515   0.015471  -0.001410
     75      -0.054316   0.001362   0.000790   0.018195   0.108277  -0.003671
     76       0.032372   0.000434  -0.056582   0.000117  -0.015612  -0.001035
     77       0.009204  -0.004226  -0.014901   0.004158   0.003063  -0.001212
     78       0.008753  -0.005449   0.157074  -0.007073   0.068826   0.001928
     79       0.147803   0.035443  -0.249094   0.003904  -0.176975  -0.022942
     80       0.025761  -0.236210  -0.164398  -0.037368  -0.039192   0.089169
     81      -0.021175  -0.029637   0.142582  -0.024689  -0.084856   0.007033
     82      -0.002688   0.045188  -0.032217   0.019274   0.134358  -0.012791
     83       0.008842  -0.156739  -0.063493   0.005320   0.047398   0.004150
     84      -0.120355   0.053058  -0.049714   0.012490  -0.065585  -0.012767
     85      -0.068279  -0.376216  -0.015837  -0.077914  -0.101031   0.046510
     86      -0.031373   0.376550  -0.003499   0.084939  -0.146653  -0.086827
     87      -0.227528   0.027820  -0.103482   0.024695   0.159526   0.019334
     88      -0.215423  -0.310239  -0.057021  -0.095825   0.223636   0.060731
     89      -0.079423   0.318880   0.036333   0.132611   0.098430  -0.035881
     90      -0.319495  -0.035110  -0.089041  -0.023234  -0.235449  -0.068245
     91      -0.029771   0.174673  -0.026413   0.082558  -0.021694   0.280823
     92       0.067804  -0.185136   0.038108  -0.075333   0.146603  -0.285859
     93      -0.139261  -0.019181  -0.030961   0.016116   0.141702  -0.024689
     94      -0.083151   0.125503  -0.038845   0.067146  -0.089318   0.249081
     95      -0.036451  -0.133940  -0.005562  -0.066156   0.012723  -0.275058
     96      -0.075313   0.008159  -0.001612  -0.006706  -0.074070   0.031494
     97      -0.018549  -0.083347   0.002134  -0.069114  -0.041104  -0.279904
     98      -0.037730   0.084499  -0.038149   0.060559  -0.148752   0.276371
     99      -0.210633   0.019792  -0.032560   0.028534   0.118279   0.049958
    100      -0.147367  -0.173541   0.005577  -0.057342   0.239366  -0.265689
    101      -0.166302   0.180171  -0.043876   0.102072   0.069747   0.312533
    102      -0.413032   0.016409  -0.130304  -0.016405  -0.187397  -0.059950
    103       0.023328  -0.182322  -0.030513   0.124801  -0.030528   0.307717
    104       0.040607   0.189457   0.072936  -0.124675   0.212144  -0.287316
    105      -0.075449   0.057253   0.358646  -0.204247  -0.081742   0.054392
    106       0.021213  -0.071133   0.054191   0.191590  -0.126518  -0.044659
    107      -0.078869   0.313210  -0.319268  -0.860387   0.234174   0.208570
    108       0.180644  -0.012784  -0.373196   0.018199  -0.125569  -0.015963
    109      -0.125888   0.013041   0.210203  -0.007212   0.102667   0.006969
    110      -0.054803  -0.006818   0.120148   0.022960   0.044176  -0.002471
                 54         55         56         57         58         59    
      0      -0.000217  -0.002488   0.008947  -0.003030  -0.000077   0.004965
      1       0.003343   0.001556   0.001209  -0.001028  -0.000051   0.000754
      2       0.002265   0.000816   0.000011   0.000020  -0.000010  -0.000458
      3      -0.000627  -0.000493   0.002098  -0.002132  -0.000059   0.001620
      4       0.004584   0.001934   0.006672  -0.001864  -0.000087   0.003340
      5       0.000144  -0.001511  -0.001122  -0.002986  -0.000010   0.000536
      6      -0.114979   0.014928  -0.020079   0.003839   0.000004   0.004309
      7      -0.001056   0.000239   0.011744  -0.004741  -0.000073   0.006138
      8       0.018188   0.001208   0.010778   0.008757   0.000005   0.000731
      9      -0.007336   0.002130   0.011430  -0.005804  -0.000061   0.000829
     10       0.046021   0.001091   0.034920   0.002646   0.000071   0.001576
     11       0.014296  -0.007297  -0.005301  -0.025979  -0.000041   0.000221
     12       0.068799   0.010671  -0.007292   0.018428  -0.000275  -0.002956
     13       0.107157   0.003171   0.025503  -0.033819  -0.000318  -0.000337
     14       0.013499   0.018548   0.052922   0.114870   0.000641   0.001160
     15       0.066279  -0.002110   0.021597  -0.022939  -0.000228   0.000982
     16      -0.189235   0.013779  -0.156201   0.050880   0.000422  -0.006362
     17      -0.060573   0.006250  -0.078337  -0.107411  -0.000874  -0.003080
     18      -0.150716  -0.011355  -0.005837   0.004647   0.000560   0.008688
     19       0.013378   0.009516   0.034114  -0.010702  -0.000249  -0.000071
     20       0.031250  -0.043156  -0.007309   0.026594   0.001117   0.000679
     21      -0.100535  -0.003692   0.084960  -0.015375  -0.000325   0.007508
     22      -0.001007  -0.060641   0.029908   0.009714   0.001642  -0.004963
     23       0.024971   0.064834   0.038635  -0.018039  -0.002218  -0.008159
     24       0.075191   0.016460  -0.094399   0.012111   0.000739  -0.000090
     25       0.012937   0.018126  -0.158238   0.019413  -0.003434  -0.001950
     26      -0.002815   0.018819  -0.131510   0.012408   0.004463   0.014073
     27       0.061171   0.008106  -0.011308   0.007398  -0.000104  -0.004004
     28      -0.011318  -0.024434   0.051009  -0.012881   0.001771   0.007773
     29      -0.028445   0.014906   0.042226  -0.000021  -0.002030  -0.007753
     30      -0.073130  -0.019090   0.031292  -0.003377  -0.000252   0.011152
     31      -0.016033   0.060512   0.037562  -0.001815   0.001126  -0.006870
     32       0.017288  -0.071166   0.027138  -0.002683  -0.001235  -0.004472
     33      -0.109044  -0.013829   0.055393  -0.006179  -0.000547   0.013706
     34      -0.095729  -0.031664   0.001630  -0.001432   0.003558  -0.002101
     35      -0.089588   0.037449  -0.003934  -0.000224  -0.003936  -0.004801
     36      -0.095665  -0.014858   0.026271  -0.003457   0.002094  -0.022220
     37      -0.044084   0.046862   0.007140  -0.002070  -0.014878   0.014928
     38       0.002318  -0.056246  -0.000287  -0.000403   0.015785   0.016996
     39      -0.033465   0.005026   0.013359  -0.002454  -0.009598  -0.025803
     40       0.125868  -0.015662  -0.034200   0.004876   0.067525  -0.070014
     41       0.106318   0.020917  -0.033475   0.005418  -0.071228  -0.061918
     42       0.229463   0.013539  -0.055448   0.007291   0.006919   0.150512
     43      -0.002312  -0.009706  -0.003105   0.000567  -0.051071  -0.070942
     44      -0.040146   0.010547   0.005586  -0.001421   0.054989  -0.087158
     45      -0.144669  -0.007902   0.058064  -0.007409   0.006817   0.040389
     46      -0.135454   0.002438   0.043720  -0.005418  -0.050484   0.135328
     47      -0.100478  -0.010535   0.033571  -0.004900   0.052600   0.122545
     48      -0.081257  -0.006148   0.023017  -0.002773  -0.008836  -0.081035
     49       0.103214   0.020684  -0.014190   0.002618   0.064465   0.035196
     50       0.124279  -0.015991  -0.017281   0.003534  -0.068864   0.043333
     51       0.073671   0.010889  -0.073648   0.009526   0.002089  -0.002386
     52       0.056410  -0.042967  -0.005823   0.000230  -0.013304  -0.023822
     53       0.011036   0.049274   0.006658  -0.001048   0.014321  -0.022418
     54       0.142455   0.001453  -0.087822   0.011499  -0.000105   0.007051
     55      -0.025153   0.046178  -0.044172   0.004014   0.002554   0.007740
     56      -0.027744  -0.037053  -0.034231   0.004090  -0.002794   0.006706
     57       0.056922   0.025225  -0.014207  -0.000825  -0.000645   0.000195
     58       0.037618  -0.101334  -0.042247   0.008741   0.003157   0.011292
     59       0.007541   0.106101  -0.022791  -0.000068  -0.003112   0.009706
     60       0.001260  -0.011157   0.057129  -0.007678   0.000123  -0.003484
     61      -0.014850   0.111580   0.132203  -0.028810  -0.003196  -0.002394
     62      -0.011461  -0.153141   0.086431  -0.002438   0.002626  -0.001720
     63       0.015801  -0.009805  -0.028763   0.004533   0.000086  -0.000951
     64       0.166407  -0.009367   0.118626  -0.020389  -0.000404   0.006053
     65       0.040000   0.024269   0.051314  -0.003521  -0.000469   0.000781
     66       0.021147  -0.010351  -0.021669   0.002816   0.000168  -0.001887
     67      -0.001468  -0.003762  -0.008667   0.003657   0.000020  -0.002842
     68      -0.004795  -0.008053  -0.004972  -0.005930  -0.000006  -0.000224
     69       0.066482   0.000070   0.015850   0.001480   0.000054  -0.009580
     70      -0.113667  -0.003475  -0.067680   0.009720   0.000202  -0.007141
     71      -0.038140   0.001424  -0.016929   0.004553   0.000035  -0.000179
     72       0.071067  -0.005362   0.049572  -0.012564  -0.000380   0.015626
     73      -0.121337   0.006339  -0.070047   0.016404   0.000486  -0.017589
     74      -0.018106   0.001787  -0.014537   0.005308   0.000119  -0.004260
     75      -0.130440   0.003104  -0.062699   0.015815   0.000495  -0.012961
     76       0.024200   0.000780   0.014036  -0.002567  -0.000143   0.003469
     77      -0.003971   0.001164  -0.006351  -0.001484   0.000016  -0.001080
     78      -0.167169  -0.000745  -0.364851  -0.085729  -0.001271  -0.021124
     79       0.250688   0.030174   0.280216   0.138212   0.000813   0.011046
     80       0.098161  -0.119904  -0.126536  -0.665616  -0.003116   0.002722
     81       0.090586   0.008143   0.001943   0.136322   0.001966  -0.003371
     82      -0.182116   0.012833  -0.244089  -0.117128  -0.000413  -0.011593
     83      -0.053499   0.026920   0.138770   0.665536   0.005030   0.003915
     84       0.175973   0.002580  -0.088648  -0.004691  -0.004036  -0.013320
     85      -0.062546   0.111204  -0.155645   0.009985   0.025211   0.055264
     86      -0.044509  -0.074869  -0.156958   0.046816  -0.023930  -0.036756
     87       0.189064  -0.022074   0.345330  -0.030616   0.001894  -0.040721
     88       0.010064   0.005931   0.139987   0.028109  -0.015233  -0.059166
     89       0.020374  -0.029984   0.140611  -0.060060   0.015617   0.037958
     90      -0.177089  -0.003764   0.056904  -0.008452   0.054318  -0.499150
     91       0.038292   0.057043  -0.020857   0.005758  -0.374649  -0.230513
     92       0.119749  -0.056569  -0.025489   0.001679   0.400932  -0.151325
     93       0.250944   0.001348  -0.064159   0.008604  -0.043015   0.135363
     94       0.031427   0.098656  -0.036920   0.000296   0.303227  -0.225304
     95       0.058168  -0.088736  -0.034977   0.006149  -0.320089  -0.226712
     96      -0.217891  -0.006529   0.094289  -0.010416  -0.041350  -0.106033
     97      -0.065019  -0.059541   0.026681  -0.006911   0.293025   0.234312
     98      -0.093943   0.065385   0.011071   0.000435  -0.314357   0.228514
     99       0.086712   0.009144   0.040004  -0.004518   0.052704  -0.553552
    100       0.204169  -0.062974  -0.009080   0.004826  -0.360380  -0.128041
    101       0.117665   0.074928  -0.008923  -0.000039   0.384624  -0.043244
    102       0.036881   0.084857   0.270174  -0.044046  -0.002791  -0.057081
    103       0.006742  -0.648627   0.099769   0.031312   0.009539  -0.018840
    104      -0.010109   0.621847   0.221320  -0.077866  -0.010985  -0.010889
    105       0.027062  -0.031266  -0.198463   0.030902   0.000408  -0.024722
    106       0.161764   0.017131   0.240567  -0.038702  -0.000840   0.020584
    107       0.038426  -0.085395   0.014689  -0.002129   0.001347   0.014932
    108       0.187803   0.017250   0.107360  -0.007275  -0.000220  -0.021363
    109      -0.141090  -0.007298  -0.089145   0.011531   0.000269  -0.005452
    110      -0.070777  -0.001157  -0.038646   0.009459   0.000112   0.001994
                 60         61         62         63         64         65    
      0       0.001401   0.101095  -0.000037  -0.035837   0.008296  -0.006809
      1      -0.000898   0.025990  -0.000006  -0.025300  -0.144271   0.012733
      2      -0.000464  -0.006020  -0.000003  -0.003086  -0.040799   0.004254
      3      -0.000092   0.036065  -0.000010  -0.016527  -0.035054   0.009672
      4       0.000315   0.071540  -0.000018  -0.027998  -0.003821   0.005371
      5       0.000145   0.010190  -0.000004  -0.002224   0.011571  -0.000836
      6       0.003315   0.082125  -0.000029  -0.014992   0.041273   0.025367
      7       0.002880   0.118863  -0.000048  -0.030967   0.208941  -0.027362
      8       0.000211   0.014779  -0.000004  -0.005250   0.044189  -0.010771
      9       0.000033   0.010585  -0.000003  -0.001257  -0.056492  -0.020229
     10       0.002052   0.021027  -0.000015  -0.000135   0.009305  -0.021712
     11       0.000296   0.002166  -0.000000   0.001357   0.013235  -0.002443
     12      -0.007330  -0.014033   0.000024  -0.054395   0.010805   0.045206
     13      -0.002745  -0.000202   0.000016  -0.010097   0.011954   0.029522
     14       0.005380   0.005114  -0.000015   0.006477   0.000810   0.000438
     15      -0.000869   0.003990   0.000014   0.022710   0.017360  -0.050890
     16      -0.000716  -0.043814  -0.000053  -0.083681  -0.027281  -0.025395
     17      -0.008176  -0.015653   0.000036  -0.027185  -0.009484   0.002639
     18       0.012803   0.073911  -0.000019   0.112364  -0.009707   0.000242
     19      -0.001150  -0.002583   0.000014   0.012433  -0.005897  -0.019698
     20       0.009749  -0.007562  -0.000100  -0.008819  -0.000217  -0.006363
     21       0.002736   0.055248   0.000064   0.109391  -0.022940   0.001087
     22       0.011458  -0.027953  -0.000172  -0.044672   0.005026   0.002421
     23      -0.021109  -0.030436   0.000211  -0.046290   0.006260  -0.002808
     24       0.015238   0.016446  -0.000092   0.021497  -0.002141  -0.021540
     25      -0.076835   0.055580   0.000618   0.073741  -0.004858   0.009226
     26       0.097179   0.035372  -0.000681   0.050835  -0.004180   0.013020
     27      -0.010922  -0.022258   0.000106  -0.038266   0.004698   0.017115
     28       0.081249   0.000698  -0.000947   0.009892  -0.003324  -0.020209
     29      -0.087048   0.016042   0.001016   0.025775  -0.003604  -0.021262
     30       0.001409   0.000171  -0.000379   0.002097  -0.000329  -0.000119
     31      -0.016935  -0.006323   0.002382  -0.008897   0.000274   0.021457
     32       0.018609  -0.008052  -0.002518  -0.009563   0.000189   0.019594
     33      -0.000868   0.003716   0.000556   0.009496  -0.001274   0.022070
     34       0.005269  -0.000132  -0.003993  -0.000455   0.000144   0.014016
     35      -0.005655   0.000000   0.004348  -0.001239   0.000289   0.010220
     36       0.001295   0.005895  -0.001061   0.008149  -0.000767   0.022316
     37      -0.001684   0.002409   0.008357   0.005412  -0.000661  -0.018965
     38      -0.001255   0.001572  -0.009104   0.004003  -0.000511  -0.020735
     39       0.001174  -0.001213   0.006859  -0.002161  -0.000469   0.000017
     40       0.003096   0.010063  -0.047035   0.007344   0.000001   0.047896
     41       0.009675   0.009249   0.050601   0.006933   0.000042   0.044851
     42      -0.009741  -0.012615  -0.010565  -0.009022   0.001014  -0.003975
     43       0.007153   0.005250   0.071500   0.001892   0.000064  -0.029421
     44       0.002548   0.006838  -0.075818   0.003220  -0.000077  -0.026858
     45      -0.004163  -0.005922   0.010246  -0.001542  -0.001235   0.014239
     46      -0.009345  -0.014812  -0.073696  -0.008301  -0.000341  -0.010772
     47      -0.010225  -0.013026   0.077817  -0.007723  -0.000146  -0.012064
     48       0.005671   0.005794  -0.006810   0.003014  -0.000089  -0.037495
     49      -0.004181   0.000233   0.049094   0.002765  -0.000398   0.030219
     50       0.001339  -0.000878  -0.052447   0.002108  -0.000377   0.033367
     51       0.001471   0.009168   0.001190   0.006544   0.002536  -0.010819
     52       0.004495  -0.001254  -0.008533  -0.004184   0.000685  -0.022173
     53      -0.003127  -0.002103   0.009225  -0.004595   0.000350  -0.019340
     54       0.002615   0.006176  -0.000623   0.002267   0.002263  -0.006761
     55      -0.002887  -0.004095   0.004011  -0.011412   0.003614   0.005050
     56       0.001220  -0.004355  -0.004272  -0.010633   0.003091   0.005576
     57      -0.004217  -0.019545   0.000318  -0.029406   0.002121  -0.017530
     58       0.003681   0.011350  -0.002252   0.016979  -0.001838   0.002173
     59      -0.000797   0.012269   0.002320   0.018463  -0.002109   0.004797
     60      -0.003885  -0.019990  -0.000007  -0.023630  -0.002101   0.010809
     61      -0.005345  -0.033424   0.000393  -0.042480   0.001938  -0.016394
     62      -0.008966  -0.024669  -0.000377  -0.036225   0.002789  -0.015254
     63      -0.001333   0.004285  -0.000014  -0.023754   0.034589   0.007679
     64      -0.000863   0.038068   0.000070   0.077014   0.027928   0.049771
     65      -0.004115   0.006861   0.000046   0.020342   0.000807   0.011143
     66      -0.000423  -0.016484  -0.000018  -0.021602  -0.003389  -0.006233
     67      -0.002159  -0.042843   0.000009  -0.007812  -0.038308  -0.005964
     68      -0.000137  -0.006705   0.000002   0.001628  -0.009688  -0.000230
     69      -0.003749  -0.200333   0.000079   0.070488  -0.049433   0.001389
     70      -0.001191  -0.151655   0.000060   0.068690  -0.043753   0.018193
     71       0.000276  -0.003446  -0.000003   0.004454  -0.004737   0.004414
     72       0.001007   0.345011  -0.000125  -0.165573  -0.319358   0.003548
     73      -0.000070  -0.395307   0.000148   0.201154   0.431240  -0.005936
     74      -0.000428  -0.093400   0.000034   0.043889   0.049761   0.002525
     75       0.003237  -0.320160   0.000118   0.204330   0.705697  -0.038407
     76      -0.001185   0.089980  -0.000029  -0.062314  -0.237541   0.016141
     77      -0.000539  -0.019383   0.000002   0.003547  -0.062127   0.008370
     78      -0.034282  -0.111853   0.000041  -0.316611   0.183694   0.377964
     79       0.017061   0.060423  -0.000010   0.144161  -0.095570  -0.167622
     80      -0.014860   0.020010   0.000105   0.096875  -0.055480  -0.114343
     81       0.024246  -0.072018  -0.000214  -0.056449  -0.030688  -0.443679
     82      -0.004995  -0.095198  -0.000093  -0.134702  -0.052507  -0.227625
     83       0.040260   0.008589  -0.000192  -0.023987  -0.008808   0.024880
     84      -0.085973  -0.019322   0.000556  -0.043731   0.011702  -0.238145
     85       0.511030   0.038108  -0.003390   0.071521  -0.012865   0.131666
     86      -0.481004   0.113992   0.003334   0.156083  -0.014514   0.141815
     87       0.058313  -0.208280  -0.000762  -0.314462   0.034537   0.177341
     88      -0.466075  -0.019615   0.004528  -0.044331   0.007008   0.033062
     89       0.483934  -0.058866  -0.004783  -0.061307   0.001153   0.006718
     90       0.029011   0.026258  -0.035321   0.003611  -0.002320   0.282601
     91       0.034533   0.018972   0.264252   0.009347  -0.000670   0.144438
     92      -0.006655   0.015912  -0.280301   0.009432  -0.000285   0.098263
     93      -0.006545  -0.011757   0.053867  -0.009484   0.001373  -0.061678
     94      -0.000984   0.018497  -0.384068   0.006184   0.001598  -0.299092
     95       0.029530   0.017808   0.408455   0.005914   0.001308  -0.273769
     96       0.007510   0.014809  -0.055978   0.021745  -0.004776   0.183050
     97      -0.021990  -0.027558   0.395710  -0.022397   0.001568  -0.101979
     98      -0.012418  -0.028104  -0.423008  -0.022978   0.002084  -0.119708
     99       0.035216   0.038297   0.040093   0.018065  -0.004096  -0.232538
    100       0.022764   0.010312  -0.273241   0.007874  -0.001991  -0.035216
    101      -0.009901   0.005851   0.291743   0.004994  -0.001224  -0.002289
    102      -0.031631  -0.239143   0.000278  -0.400647   0.063094   0.031749
    103      -0.038187  -0.085861  -0.001210  -0.162132   0.026980  -0.006601
    104       0.008940  -0.081512   0.001291  -0.105096   0.010004  -0.017618
    105      -0.014833  -0.148643  -0.000193  -0.378524   0.079024  -0.063800
    106       0.005015   0.134573   0.000203   0.302890   0.002092   0.098937
    107       0.023444   0.074212  -0.000045   0.155791  -0.009629   0.033627
    108      -0.009341  -0.497622   0.000256   0.236098   0.000360   0.014050
    109      -0.000253  -0.106548   0.000032   0.041859  -0.060079   0.017752
    110       0.001447   0.052237  -0.000040  -0.026576  -0.007920   0.001548
                 66         67         68         69         70         71    
      0       0.007168   0.002379   0.004451  -0.026136  -0.000730  -0.011365
      1      -0.012748  -0.003569  -0.005928   0.006867  -0.000847   0.008081
      2      -0.004270  -0.001054  -0.001983   0.004727   0.000334   0.002882
      3      -0.009934  -0.002696  -0.005742   0.038190  -0.001602   0.037943
      4      -0.005318  -0.002071  -0.003140   0.017792  -0.005824   0.036758
      5       0.000900   0.000032   0.000435  -0.002365  -0.001415   0.002784
      6      -0.025954  -0.008531  -0.015686   0.026265  -0.011863   0.087382
      7       0.027331   0.008539   0.014338  -0.028385   0.007045  -0.045407
      8       0.010855   0.003378   0.005981  -0.010953   0.003709  -0.025580
      9       0.020846   0.007915   0.013930  -0.040316   0.012468  -0.107045
     10       0.021107   0.004948   0.007865  -0.030006   0.011263  -0.102474
     11       0.001927  -0.000034  -0.000720  -0.000686   0.000942  -0.007672
     12      -0.042327  -0.007690  -0.012552  -0.008137  -0.000560   0.024780
     13      -0.030249  -0.007634  -0.017073   0.023568  -0.003531   0.055980
     14      -0.001384  -0.000769  -0.002940   0.006964  -0.000666   0.009696
     15       0.050085   0.012650   0.022407   0.024706  -0.005252   0.020359
     16       0.022831   0.006675   0.007398  -0.003460   0.002514  -0.017787
     17      -0.002066  -0.000574  -0.000220  -0.003537   0.001033  -0.007291
     18      -0.003592  -0.006060  -0.007859   0.074257  -0.012894  -0.010860
     19       0.024916   0.004017   0.018215  -0.008016  -0.012086   0.068995
     20       0.005611   0.002429   0.002687  -0.013314  -0.000603   0.015871
     21       0.003146   0.003131   0.013414  -0.130440   0.007404   0.010004
     22       0.004182  -0.011135   0.011424   0.017008   0.007361   0.055779
     23       0.009329  -0.008498   0.012496   0.028812   0.004341   0.053799
     24      -0.001531  -0.015499  -0.049892  -0.018088  -0.008416   0.015883
     25      -0.002308   0.008168   0.026418   0.001849   0.010503  -0.016638
     26      -0.004581   0.009008   0.028999   0.002410   0.012202  -0.018753
     27      -0.004929   0.011370   0.033375   0.020168  -0.002950  -0.017757
     28      -0.008648  -0.008250  -0.036505  -0.016666   0.039205  -0.009558
     29      -0.006294  -0.008676  -0.036267  -0.018105   0.036828  -0.006249
     30       0.004893  -0.012686  -0.009151  -0.007070  -0.026052   0.047531
     31       0.007379   0.003064   0.029722  -0.007928  -0.085145   0.016387
     32       0.006755   0.005042   0.029156  -0.006317  -0.076108   0.007974
     33       0.001840   0.035537   0.031758   0.000689  -0.011478  -0.062201
     34       0.015798   0.014180  -0.013330   0.003371  -0.009323  -0.028475
     35       0.014481   0.008527  -0.016502   0.003165  -0.007106  -0.018369
     36       0.022441  -0.006217   0.010323  -0.000483  -0.094970   0.043523
     37      -0.014034  -0.020029   0.002878  -0.005138   0.050217   0.028365
     38      -0.016161  -0.018053   0.001125  -0.004785   0.059686   0.020910
     39       0.003186   0.001061  -0.006534  -0.005388   0.032330  -0.013118
     40       0.049653   0.003598  -0.002985   0.004322  -0.031996  -0.017336
     41       0.046086   0.003185  -0.001879   0.004787  -0.034290  -0.014562
     42      -0.001061  -0.009025  -0.003213   0.002164   0.000553   0.000025
     43      -0.024749  -0.034859   0.010219  -0.001405  -0.012379   0.016249
     44      -0.022872  -0.031277   0.009918  -0.001602  -0.011716   0.015283
     45       0.026120  -0.043047   0.001657  -0.012521   0.007810   0.023025
     46      -0.017812   0.023224   0.001505  -0.006315  -0.008359  -0.008516
     47      -0.020251   0.027493   0.001180  -0.004249  -0.008889  -0.011066
     48      -0.047758   0.015595   0.011356   0.006263   0.010300  -0.025861
     49       0.033141  -0.007679  -0.001333  -0.002048  -0.040628  -0.007399
     50       0.037458  -0.009362  -0.002810  -0.002712  -0.039437  -0.003511
     51      -0.000883  -0.022370  -0.006905   0.031533   0.019822   0.038142
     52      -0.023638   0.013247  -0.007526   0.007107   0.087227   0.025540
     53      -0.021932   0.015477  -0.005989   0.002396   0.079065   0.018879
     54      -0.020832   0.039078   0.002140   0.021651   0.024456  -0.067938
     55       0.008282   0.003703  -0.011729   0.032724   0.002737  -0.039931
     56       0.010399  -0.001673  -0.011279   0.027672  -0.000400  -0.028271
     57      -0.005659  -0.008904  -0.014775  -0.010296   0.075557   0.061581
     58       0.003862  -0.006201   0.006754  -0.024029  -0.039570   0.032396
     59       0.004165  -0.005069   0.007881  -0.020722  -0.048193   0.022131
     60       0.006753  -0.002990  -0.003015  -0.037538  -0.031828  -0.003643
     61      -0.004772   0.002516  -0.042415  -0.011985   0.028100  -0.020611
     62      -0.007399   0.001923  -0.040560  -0.003565   0.030750  -0.019597
     63      -0.008605  -0.002467  -0.004298   0.060787   0.000354   0.039612
     64      -0.050236  -0.010384  -0.021802  -0.019432  -0.005756   0.037482
     65      -0.010525  -0.002140  -0.003774  -0.017292  -0.001014   0.003905
     66       0.003479  -0.000052  -0.001780   0.063108   0.014934  -0.057996
     67       0.007387   0.002989   0.008298  -0.126110   0.010894  -0.108629
     68       0.001191   0.000812   0.002531  -0.041698  -0.000111  -0.016765
     69      -0.000691   0.000145   0.000877  -0.019156   0.006549  -0.039326
     70      -0.019020  -0.005447  -0.010549   0.085238  -0.006969   0.065081
     71      -0.004731  -0.001459  -0.002855   0.024152  -0.002817   0.022649
     72      -0.002340   0.000516   0.002957  -0.075197  -0.001681  -0.034672
     73       0.004370  -0.000399  -0.003269   0.094265   0.000256   0.050193
     74      -0.003080  -0.001857  -0.003226   0.029417  -0.000831   0.014972
     75       0.037562   0.008756   0.014096   0.024654  -0.002204   0.012960
     76      -0.015876  -0.003664  -0.006288  -0.003778   0.000392   0.001974
     77      -0.008686  -0.003357  -0.005209   0.017130  -0.001928   0.012075
     78      -0.369388  -0.085224  -0.146482  -0.258534   0.067641  -0.316228
     79       0.163085   0.038172   0.061224   0.176231  -0.044953   0.266912
     80       0.114630   0.027653   0.050612   0.091850  -0.023618   0.123140
     81       0.414565   0.103459   0.120785   0.054419   0.027505  -0.189417
     82       0.216356   0.057264   0.072997   0.014452   0.018673  -0.127740
     83      -0.039315  -0.015589  -0.047589  -0.015120   0.003451   0.005095
     84       0.040666  -0.080617  -0.504689   0.033663   0.061088   0.036430
     85      -0.041292   0.034514   0.244225  -0.037777  -0.023065  -0.025939
     86      -0.011384   0.061133   0.351452  -0.024332  -0.033757  -0.037418
     87      -0.064356   0.056744   0.569891   0.247938   0.389973   0.021455
     88      -0.025386   0.010225   0.156502   0.062709   0.180680   0.000881
     89      -0.022304  -0.004961   0.050521   0.020121   0.113846   0.002512
     90       0.298120   0.288317  -0.226323  -0.010976   0.461783   0.080508
     91       0.150346   0.098153  -0.074850   0.002936   0.105209   0.012594
     92       0.101670   0.054212  -0.040208   0.004154   0.036985   0.001082
     93      -0.051892  -0.081493   0.023285   0.002635   0.017674  -0.021733
     94      -0.260101  -0.389373   0.140156   0.002954   0.064769  -0.091840
     95      -0.238359  -0.356215   0.128984   0.002471   0.058497  -0.083479
     96       0.298116  -0.476080   0.051331  -0.050051  -0.062830  -0.088121
     97      -0.165677   0.261915  -0.026426   0.013156   0.029079   0.053289
     98      -0.194849   0.309239  -0.031744   0.019071   0.035717   0.061709
     99      -0.362012   0.391594   0.042939  -0.054863  -0.420002   0.009084
    100      -0.074055   0.124098   0.009407  -0.025094  -0.197332   0.005247
    101      -0.021415   0.064542   0.003151  -0.016401  -0.129354   0.003879
    102       0.037016  -0.052591  -0.128530   0.355070  -0.473340  -0.320944
    103      -0.003384  -0.014689  -0.087578   0.109067  -0.101901  -0.109849
    104       0.004468  -0.004133  -0.062223   0.066105  -0.044496  -0.084407
    105       0.087714   0.019353   0.070033  -0.451618  -0.085358   0.600282
    106      -0.113822  -0.025036  -0.069268   0.297308   0.044908  -0.307859
    107      -0.048401  -0.009022  -0.033635   0.142079   0.036725  -0.168499
    108      -0.004009   0.002241   0.013045  -0.469654  -0.040922   0.006015
    109      -0.020452  -0.006512  -0.014039   0.181156   0.001587   0.062718
    110      -0.003953  -0.001894  -0.005580   0.124737   0.007357   0.014477
                 72         73         74         75         76         77    
      0       0.015017   0.039102  -0.027288  -0.018343   0.049451  -0.032260
      1       0.002974  -0.007515   0.004660   0.025006  -0.001343   0.023953
      2      -0.002627  -0.009213   0.006182   0.007484  -0.010911   0.010688
      3      -0.004370  -0.058914   0.035407   0.013908  -0.065958   0.016481
      4       0.023146  -0.004134  -0.004681  -0.003145   0.028630  -0.037572
      5       0.007692   0.011013  -0.008597  -0.004102   0.021610  -0.014889
      6       0.054756  -0.027770   0.006364   0.140417   0.049068   0.108909
      7      -0.022692   0.012833   0.001380  -0.043723  -0.049378  -0.010400
      8      -0.015292   0.007395  -0.000354  -0.034004  -0.021118  -0.019884
      9      -0.051259   0.052145  -0.021070  -0.202317  -0.044758  -0.194169
     10      -0.072217   0.031525  -0.010388  -0.037133   0.054108  -0.005978
     11      -0.009269  -0.001152   0.000682   0.024379   0.021269   0.030565
     12       0.014322  -0.025244   0.004659  -0.103013  -0.019482  -0.162516
     13       0.027113  -0.061119   0.029499   0.084962   0.026462  -0.024966
     14       0.004647  -0.011205   0.006399   0.038958   0.009731   0.022292
     15       0.023537   0.015854  -0.000415   0.075538  -0.026629   0.162521
     16       0.011994   0.011501   0.000262  -0.008914  -0.027373  -0.023702
     17      -0.002937   0.001544  -0.000358  -0.015199  -0.000740  -0.031236
     18       0.021755   0.142335  -0.083987  -0.026216   0.012795   0.196464
     19      -0.002841   0.024289  -0.033137  -0.163655  -0.053037   0.039559
     20       0.004598  -0.014659   0.006260  -0.035058  -0.019618  -0.027864
     21       0.012894  -0.063617   0.043904   0.056872  -0.058851  -0.131011
     22      -0.104962   0.014932  -0.027385  -0.041003   0.037190   0.090854
     23      -0.094715   0.023754  -0.032975  -0.055770   0.032486   0.110096
     24      -0.015457   0.021240   0.021541   0.021019  -0.019770  -0.047228
     25       0.028088  -0.004553  -0.020498   0.022707  -0.005346  -0.027297
     26       0.028125  -0.009757  -0.021452   0.019794  -0.002006  -0.022904
     27       0.032046  -0.010343   0.016302  -0.045375   0.006723   0.036395
     28       0.028304  -0.010491  -0.020790   0.028522  -0.034191  -0.042802
     29       0.021790  -0.007946  -0.020973   0.033065  -0.032698  -0.045253
     30      -0.081371   0.035278   0.037041  -0.031978   0.034478   0.099797
     31      -0.036773   0.027128   0.104391  -0.052918   0.043886   0.053418
     32      -0.022607   0.019805   0.092669  -0.045023   0.036356   0.036333
     33       0.105807  -0.057970   0.004739  -0.041704   0.007170   0.030904
     34       0.026407  -0.050061  -0.054365  -0.015700  -0.002626   0.044904
     35       0.010679  -0.039032  -0.051497  -0.008976  -0.003380   0.037991
     36      -0.117753   0.057475  -0.062174   0.125575  -0.057039  -0.163771
     37      -0.013925   0.038729   0.047013   0.009923   0.012430  -0.031015
     38       0.002350   0.028685   0.052358  -0.007489   0.019265  -0.007141
     39       0.029293  -0.031933  -0.005936  -0.004116   0.003457  -0.033961
     40       0.008519  -0.016345  -0.036731   0.017137  -0.017711  -0.023072
     41       0.004191  -0.011116  -0.033672   0.016574  -0.017058  -0.017106
     42      -0.000264  -0.005575   0.005269  -0.024028   0.014407   0.047601
     43      -0.034456   0.017568  -0.007840   0.029742  -0.010790  -0.045889
     44      -0.032386   0.017236  -0.008090   0.031143  -0.012067  -0.049446
     45      -0.033595   0.010459   0.027353   0.000447   0.010728  -0.006929
     46       0.008147  -0.037166  -0.005920  -0.026058   0.021799   0.028768
     47       0.012116  -0.036296  -0.009200  -0.024522   0.019020   0.027917
     48       0.055442   0.005843   0.010195  -0.008662  -0.019267   0.013522
     49      -0.005067  -0.017238  -0.020120  -0.009568  -0.000709   0.034041
     50      -0.012097  -0.016894  -0.020184  -0.007814   0.001890   0.030100
     51      -0.047705   0.132713  -0.016097   0.090194  -0.066568  -0.060369
     52       0.005632   0.079321   0.069559   0.029264  -0.019226  -0.073418
     53       0.011707   0.056648   0.067330   0.015266  -0.009377  -0.060774
     54       0.124683  -0.048623   0.000854  -0.052095   0.015666   0.045574
     55       0.048660  -0.005201  -0.075549   0.024400  -0.034468   0.003652
     56       0.028814   0.001403  -0.070958   0.029757  -0.034250  -0.002547
     57      -0.114488  -0.030045  -0.017667  -0.012694   0.049847   0.023518
     58      -0.044079   0.002273   0.063191  -0.026495   0.039357   0.002530
     59      -0.025552   0.007425   0.061973  -0.022513   0.030627  -0.001167
     60      -0.012833  -0.074671   0.020664  -0.017000   0.020578  -0.035440
     61       0.029537  -0.046544  -0.012675   0.011927  -0.004391  -0.039661
     62       0.028274  -0.032109  -0.015215   0.016311  -0.004616  -0.030442
     63       0.012129  -0.003890  -0.020813  -0.033762   0.102437  -0.095291
     64       0.060278  -0.013157   0.009279   0.084262  -0.003670  -0.008826
     65       0.011088  -0.004355   0.006341   0.026012  -0.018326   0.012203
     66      -0.082673  -0.041496   0.035792   0.010636  -0.016525   0.026475
     67      -0.033092   0.064153  -0.011374   0.094032  -0.053576   0.209850
     68       0.006349   0.022753  -0.008680   0.021977  -0.010760   0.048047
     69      -0.046551  -0.032697   0.036876   0.021785  -0.107375   0.098862
     70       0.029527  -0.019304  -0.006630  -0.040811   0.053929  -0.104044
     71       0.014791   0.000608  -0.007670  -0.013273   0.030885  -0.041202
     72       0.039462   0.102864  -0.068350  -0.007544   0.129542  -0.040500
     73      -0.037998  -0.117316   0.075225   0.005278  -0.138339   0.034933
     74      -0.010118  -0.033531   0.023267   0.017399  -0.040121   0.026989
     75       0.000896   0.002944  -0.007763  -0.070765   0.021430  -0.092326
     76       0.002996  -0.003496   0.002411   0.026157  -0.001422   0.027896
     77      -0.000002  -0.013948   0.009834   0.027099  -0.009739   0.028825
     78      -0.245822  -0.086713   0.076417   0.265685   0.171482   0.029601
     79       0.187694  -0.030023  -0.011533  -0.144672  -0.090000  -0.166688
     80       0.090528   0.007832  -0.013884  -0.081085  -0.053930  -0.046125
     81      -0.069481  -0.246426   0.193379   0.598942   0.407563  -0.211592
     82      -0.037187  -0.128396   0.107333   0.259852   0.200316  -0.231120
     83       0.003448   0.010459  -0.019689  -0.051651  -0.033110  -0.032875
     84      -0.078920  -0.072865  -0.321835  -0.052162   0.020429   0.073406
     85       0.063835   0.044665   0.157942   0.062762  -0.037676  -0.111297
     86       0.075893   0.052905   0.205198   0.082575  -0.025559  -0.098418
     87      -0.074228   0.038507  -0.416789   0.196833  -0.008661  -0.018854
     88      -0.003717   0.004592  -0.174208   0.121024  -0.043987  -0.073788
     89       0.002033   0.001779  -0.105978   0.083574  -0.041647  -0.064854
     90       0.103542   0.109381   0.335519  -0.245811   0.154431   0.374581
     91       0.032124   0.030348   0.071502  -0.058331   0.028995   0.106388
     92       0.016216   0.013767   0.022226  -0.021913   0.006505   0.049694
     93       0.048725  -0.020940   0.034628  -0.072335   0.032708   0.123957
     94       0.204239  -0.047691   0.124579  -0.181505   0.059518   0.287540
     95       0.185565  -0.042018   0.112588  -0.160966   0.051611   0.253918
     96       0.056004  -0.290702  -0.108262  -0.100412   0.107561   0.047322
     97      -0.042977   0.124910   0.069518   0.025302  -0.027471   0.005487
     98      -0.047779   0.155908   0.079548   0.037146  -0.040155  -0.001205
     99      -0.207790  -0.262164  -0.230564  -0.058477   0.110624   0.119721
    100      -0.101192  -0.116784  -0.106988  -0.029684   0.048001   0.076057
    101      -0.067578  -0.074827  -0.069724  -0.020244   0.030269   0.055472
    102       0.432373   0.501595   0.276166   0.171777  -0.122087  -0.134397
    103       0.171645   0.132778   0.059560   0.075575  -0.040781  -0.068179
    104       0.101545   0.058769   0.031801   0.042779  -0.034399  -0.051018
    105       0.419808  -0.004570  -0.074529  -0.001000  -0.210736   0.127889
    106      -0.184720  -0.008058   0.040369   0.073786   0.198527  -0.147738
    107      -0.111110  -0.001678   0.011546   0.021522   0.086644  -0.049243
    108       0.343686   0.486533  -0.344467   0.049574   0.652444  -0.231434
    109      -0.044136  -0.122837   0.067359  -0.048669  -0.088068  -0.048301
    110      -0.069102  -0.112555   0.074728  -0.021731  -0.131940   0.025445
                 78         79         80         81         82         83    
      0      -0.008038  -0.002856   0.008186  -0.003358   0.012145   0.083575
      1       0.003709   0.000775   0.002425   0.001063   0.007751   0.057827
      2       0.002280   0.001047  -0.000817   0.001064   0.000542   0.004014
      3       0.008826   0.019494  -0.023016   0.011984  -0.036451  -0.312804
      4      -0.005381   0.010709  -0.009760   0.001405  -0.033796  -0.278579
      5      -0.003689  -0.001699   0.002229  -0.002681  -0.001786  -0.014351
      6       0.020266   0.032962  -0.000940   0.026334  -0.001401   0.075392
      7      -0.014385  -0.059110   0.025230  -0.035175   0.024106   0.156266
      8      -0.006692  -0.019908   0.006172  -0.012891   0.006026   0.025123
      9      -0.039678  -0.053840   0.006922  -0.048742   0.027116  -0.025472
     10       0.045070   0.167303  -0.087571   0.120710  -0.040470  -0.061410
     11       0.018134   0.051335  -0.023240   0.038681  -0.015195  -0.011462
     12      -0.030473  -0.017715  -0.005516  -0.026711  -0.031419  -0.093247
     13      -0.013184  -0.003195   0.012353  -0.028845   0.034003   0.048327
     14       0.002259   0.002032   0.004546  -0.002989   0.014335   0.028811
     15       0.003064  -0.073146   0.043315  -0.007236   0.020749   0.117294
     16      -0.041571  -0.135961   0.060451  -0.078903   0.012626  -0.001302
     17      -0.010593  -0.021967   0.008336  -0.019370  -0.000153  -0.021236
     18       0.044342  -0.014686  -0.002407   0.049935  -0.047487  -0.074466
     19       0.073136   0.187943  -0.096645   0.150933  -0.041318   0.059803
     20       0.006728   0.049037  -0.030101   0.040238  -0.009169   0.025769
     21      -0.025232   0.075073  -0.036787  -0.033935   0.075465  -0.028806
     22       0.033647   0.035001   0.064380  -0.050266   0.149225  -0.005830
     23       0.041042   0.035416   0.055755  -0.028318   0.120718   0.004481
     24      -0.005140  -0.023536   0.001572   0.049662   0.137762  -0.048236
     25       0.053544  -0.014918  -0.023783  -0.029641  -0.086601  -0.026688
     26       0.049854  -0.012712  -0.020617  -0.037341  -0.097728  -0.017990
     27      -0.041093   0.024661   0.015691   0.036079  -0.066904   0.118542
     28      -0.059244   0.007332  -0.050120   0.038099   0.004707   0.050483
     29      -0.051038   0.003443  -0.049106   0.031176   0.014354   0.030971
     30      -0.206300  -0.006739  -0.081841   0.002573  -0.079133   0.013538
     31       0.013978   0.012359   0.157471   0.004519   0.126360  -0.072584
     32       0.041545   0.013136   0.157827   0.003647   0.127859  -0.068621
     33       0.104395   0.046142   0.070178  -0.053966  -0.004218  -0.028495
     34      -0.087747   0.035922   0.022270  -0.014927  -0.096350   0.008822
     35      -0.096051   0.027307   0.011283  -0.006758  -0.089797   0.012156
     36       0.071849   0.023028   0.070593  -0.023709  -0.130271  -0.016954
     37       0.102397  -0.080302  -0.159475  -0.001313   0.186858  -0.015323
     38       0.085980  -0.078355  -0.158762   0.001889   0.192544  -0.012150
     39       0.095780  -0.071095  -0.019085   0.079280   0.283407   0.036527
     40       0.015426   0.025414   0.034155  -0.010848   0.093488   0.000728
     41       0.001749   0.033366   0.034607  -0.020743   0.049808  -0.004223
     42      -0.065183  -0.005007  -0.015467   0.010674  -0.111908  -0.009413
     43      -0.000051  -0.023399   0.032072   0.057512  -0.105629   0.034819
     44       0.008644  -0.021317   0.032153   0.052584  -0.084241   0.033949
     45      -0.009905   0.003598   0.025912  -0.032153  -0.211932  -0.000672
     46       0.013735  -0.050122  -0.035729   0.032244   0.022979  -0.022770
     47       0.014216  -0.047530  -0.036968   0.034525   0.049771  -0.021279
     48       0.003188   0.091254   0.026505  -0.073823   0.257495   0.018950
     49      -0.049064   0.048123  -0.027314  -0.072395   0.065297   0.004363
     50      -0.046390   0.033069  -0.029135  -0.058183   0.027019   0.001594
     51      -0.078865   0.079513  -0.093219  -0.043571   0.113292   0.006726
     52       0.059270   0.008744   0.149738   0.073209  -0.172772   0.018058
     53       0.066108  -0.002064   0.152695   0.074418  -0.176799   0.016340
     54       0.072131  -0.034564   0.057512   0.078711  -0.060279  -0.006521
     55      -0.047627   0.037504   0.011730   0.016813   0.081332  -0.016488
     56      -0.054248   0.039532   0.003577   0.005413   0.084278  -0.014730
     57      -0.118728  -0.129603   0.070015   0.099992   0.040916  -0.070752
     58       0.082499  -0.063982  -0.138758  -0.056733  -0.162651   0.048952
     59       0.092965  -0.043335  -0.139554  -0.066693  -0.157926   0.053535
     60       0.108120   0.031992  -0.003510  -0.112202  -0.107375   0.087671
     61      -0.046960  -0.015480   0.022620   0.019714  -0.052926   0.013194
     62      -0.059364  -0.022325   0.023490   0.030899  -0.034503  -0.001085
     63      -0.010046   0.043029  -0.000460   0.012855   0.002247   0.035642
     64      -0.029533  -0.065818   0.023499  -0.046531   0.013405  -0.033148
     65      -0.005857  -0.022799   0.006728  -0.014751   0.005284  -0.014777
     66      -0.000413  -0.028035   0.026787  -0.027995   0.029586   0.044394
     67       0.022282  -0.078730   0.036706  -0.025024  -0.030970  -0.086622
     68       0.005756  -0.014820   0.004625  -0.001926  -0.012413  -0.028430
     69       0.025740   0.007590  -0.018393   0.020579  -0.011355   0.101327
     70      -0.018717   0.012636   0.004239  -0.006770   0.030423   0.119172
     71      -0.008672   0.001960   0.004059  -0.004994   0.009287   0.011838
     72      -0.017267  -0.020284   0.033831  -0.016122   0.051816   0.374011
     73       0.019328   0.032291  -0.043811   0.024275  -0.063857  -0.471256
     74       0.008252   0.008740  -0.013614   0.008694  -0.019748  -0.138896
     75      -0.016787  -0.009860  -0.000998  -0.015834  -0.026941  -0.196289
     76       0.003762  -0.000151   0.005388   0.000906   0.015627   0.112640
     77       0.006620   0.005656  -0.005442   0.005831  -0.006510  -0.038603
     78       0.087413   0.324400  -0.117765   0.123506   0.058841   0.071935
     79      -0.091381  -0.219751   0.083890  -0.132230  -0.017606  -0.057603
     80      -0.041770  -0.114906   0.043271  -0.055278  -0.011452  -0.023709
     81      -0.038210   0.312740  -0.128998   0.068687   0.012681  -0.161744
     82      -0.074239   0.054705  -0.022674  -0.048233   0.012914  -0.144989
     83       0.002642  -0.051475   0.017413  -0.035857  -0.006779  -0.016049
     84       0.567047   0.027466   0.045786  -0.333673  -0.185221  -0.155648
     85      -0.246960  -0.053364  -0.049767   0.167136   0.090439   0.021113
     86      -0.321075  -0.035316  -0.060599   0.223644   0.109790   0.046144
     87       0.239760  -0.087306  -0.272339  -0.229761  -0.270613  -0.168233
     88       0.037393  -0.031928  -0.155843  -0.050216  -0.058320  -0.049747
     89       0.001394  -0.020041  -0.107671  -0.014278  -0.015347  -0.026008
     90      -0.194793  -0.007911  -0.368020  -0.214909  -0.253167  -0.118198
     91      -0.077071   0.051292  -0.077964  -0.114029  -0.075572  -0.052490
     92      -0.046233   0.049073  -0.024076  -0.078185  -0.036339  -0.033396
     93      -0.115903   0.040358  -0.033018  -0.061639  -0.142429  -0.040801
     94      -0.216379   0.223049  -0.025458  -0.312978  -0.168837  -0.105992
     95      -0.187954   0.204248  -0.019591  -0.286066  -0.139486  -0.094125
     96       0.125687  -0.384668  -0.097481   0.362357  -0.088991  -0.045091
     97      -0.064930   0.159535   0.027088  -0.186950  -0.064850  -0.002797
     98      -0.077548   0.200854   0.038526  -0.223522  -0.049034   0.003357
     99      -0.062546  -0.364303  -0.365595   0.206116  -0.135653  -0.079534
    100      -0.076548  -0.113779  -0.168103   0.021443  -0.087211  -0.031679
    101      -0.063603  -0.058432  -0.109186  -0.007158  -0.063830  -0.019053
    102       0.029544  -0.131504  -0.439507   0.085821  -0.124027  -0.076792
    103      -0.084963  -0.082958  -0.108167   0.086832  -0.067993  -0.047735
    104      -0.073766  -0.047212  -0.053046   0.072485  -0.044244  -0.017992
    105       0.035561   0.076062  -0.067904   0.078341  -0.015153  -0.058960
    106      -0.059123  -0.091271   0.068136  -0.093486   0.024820   0.016291
    107      -0.027769  -0.044944   0.035975  -0.030906   0.002845   0.010468
    108      -0.094386  -0.081429   0.121009  -0.083922   0.055626  -0.073618
    109       0.003484   0.032364  -0.022841   0.013515   0.020383   0.168664
    110       0.016354   0.021154  -0.025761   0.016914  -0.003868   0.054445
                 84         85         86         87         88         89    
      0      -0.021409   0.012009   0.013734  -0.000602  -0.003012  -0.023954
      1      -0.023568   0.007428   0.007511  -0.012798  -0.005529   0.007115
      2      -0.004462   0.001373   0.001607  -0.004979  -0.000363   0.009271
      3       0.077639  -0.055005  -0.072776  -0.003589  -0.019826  -0.076142
      4       0.121940  -0.044287  -0.036833   0.097903   0.071561   0.076713
      5       0.018428  -0.001985   0.004291   0.029367   0.026039   0.043933
      6      -0.000001   0.057485   0.068025  -0.001557   0.020850   0.008950
      7      -0.062186   0.019557   0.035315  -0.069918  -0.048530  -0.048144
      8      -0.015310  -0.004760  -0.002805  -0.017607  -0.016185  -0.014589
      9      -0.071654  -0.132330  -0.177260  -0.017681  -0.072419   0.004479
     10      -0.012529   0.024637  -0.074896   0.053072   0.012989   0.057341
     11       0.009137   0.029315   0.011682   0.016022   0.015542   0.013726
     12       0.066010   0.124581   0.202070  -0.113591  -0.022384   0.002223
     13      -0.048394  -0.068991  -0.055154  -0.027178  -0.034421  -0.028471
     14      -0.023456  -0.039827  -0.049426   0.013548  -0.004529  -0.007822
     15      -0.001157  -0.058959  -0.115477   0.200240   0.122842   0.012004
     16       0.034323  -0.012068   0.005726   0.048499   0.038688   0.010316
     17       0.010551   0.006302   0.022190  -0.023862  -0.014345   0.000301
     18      -0.006615   0.006279  -0.084786  -0.117556  -0.183987   0.033022
     19      -0.013656   0.088222   0.045846   0.058480   0.074716  -0.016027
     20      -0.007672   0.035218   0.023791   0.038694   0.053365  -0.005287
     21      -0.099584  -0.071792   0.063418  -0.030680   0.166287  -0.059444
     22       0.018315  -0.151726   0.056293  -0.024201  -0.033790  -0.122164
     23       0.027730  -0.123923   0.038781  -0.008890  -0.045818  -0.101699
     24      -0.074534   0.038427   0.047001   0.104974  -0.029516  -0.132926
     25      -0.053364   0.057114  -0.029905  -0.044077   0.058931   0.071115
     26      -0.040457   0.046597  -0.033820  -0.055554   0.060668   0.083669
     27       0.198747  -0.069656  -0.018302   0.009361  -0.114607   0.082967
     28       0.074380  -0.035610   0.016935   0.057954  -0.065008  -0.044207
     29       0.042283  -0.023805   0.018693   0.053015  -0.045403  -0.053291
     30       0.037298  -0.027266  -0.061076  -0.166518   0.112305   0.048275
     31      -0.082435   0.019331   0.013447  -0.051414   0.049851   0.075285
     32      -0.081033   0.021114   0.020886  -0.025514   0.031136   0.063838
     33      -0.066760  -0.025171   0.032925   0.022883   0.036729  -0.065486
     34      -0.002609  -0.002932  -0.020324  -0.025303   0.041035  -0.034695
     35       0.006736   0.000556  -0.023573  -0.026839   0.033393  -0.023535
     36      -0.048822   0.063898   0.049553   0.167346  -0.160301   0.052691
     37      -0.001211   0.016775   0.030917   0.053549  -0.065566   0.009111
     38       0.005253   0.007194   0.022373   0.027799  -0.039850   0.001420
     39       0.117801   0.081201  -0.106666  -0.087777   0.047597  -0.010351
     40       0.018878   0.059934  -0.024223   0.023271  -0.031855   0.042531
     41       0.001997   0.045441  -0.008499   0.033518  -0.036255   0.041260
     42      -0.040094  -0.100051   0.055665  -0.019785   0.029573   0.013127
     43       0.046864  -0.046289  -0.035532  -0.092297   0.088639  -0.098572
     44       0.049306  -0.030157  -0.040735  -0.083994   0.079253  -0.094227
     45      -0.034217   0.081496  -0.028907   0.067803  -0.044109  -0.141032
     46      -0.042366  -0.062638   0.063094   0.026040  -0.025828   0.081956
     47      -0.035212  -0.069615   0.063063   0.015407  -0.018367   0.095678
     48       0.089747   0.105910  -0.092859  -0.062848   0.038828   0.058341
     49       0.024523   0.095021  -0.059887  -0.002612   0.005401  -0.047558
     50       0.011146   0.075131  -0.043892   0.005857  -0.000104  -0.052354
     51       0.004638  -0.177825   0.103911  -0.047212   0.055420   0.120300
     52       0.006022  -0.088042   0.026821  -0.027326   0.017304   0.045168
     53       0.004943  -0.059141   0.011394  -0.019241   0.009049   0.026307
     54      -0.013319  -0.043028   0.010757   0.006801  -0.028570  -0.106374
     55      -0.017385  -0.047534   0.041798   0.013684  -0.018702  -0.017133
     56      -0.014678  -0.038694   0.037711   0.011898  -0.013740  -0.001880
     57      -0.107001   0.250466  -0.088505   0.048853  -0.004685   0.026336
     58       0.043634   0.059141  -0.067695  -0.001983   0.015466  -0.036239
     59       0.055125   0.022388  -0.051558  -0.009341   0.014145  -0.037059
     60       0.163175  -0.047748   0.007263   0.022165  -0.076030   0.093360
     61       0.030460   0.073099  -0.022379   0.020809  -0.022521   0.088411
     62       0.007805   0.072699  -0.022301   0.014802  -0.013569   0.070028
     63       0.025909   0.088377   0.134478  -0.042228   0.009202  -0.046584
     64      -0.049288  -0.066871  -0.101813  -0.060119  -0.086762   0.035537
     65      -0.017664  -0.033273  -0.047878  -0.008221  -0.022388   0.015420
     66       0.046615  -0.070706  -0.031269   0.188770   0.151623   0.001941
     67       0.109325   0.089290   0.167016  -0.028190   0.031894  -0.036469
     68       0.019161   0.033223   0.046685  -0.039389  -0.018066  -0.009743
     69      -0.055226   0.064573   0.050769  -0.089511  -0.058238   0.050059
     70      -0.056586  -0.026359  -0.035590   0.012830  -0.000760  -0.006191
     71      -0.004500  -0.017254  -0.017174   0.017823   0.009218  -0.010892
     72      -0.096208   0.056971   0.083219   0.016042   0.048685   0.157882
     73       0.109126  -0.078486  -0.129081  -0.051703  -0.117957  -0.383050
     74       0.023798  -0.029443  -0.057031  -0.037219  -0.074017  -0.218506
     75       0.137605  -0.013609   0.042637   0.183270   0.214295   0.514259
     76      -0.046035   0.017799   0.019450  -0.026216  -0.008996   0.015241
     77      -0.000064  -0.013108  -0.031077  -0.028460  -0.052406  -0.147445
     78      -0.207394  -0.219186  -0.329201  -0.017526  -0.101921  -0.016514
     79       0.115194   0.135048   0.273289  -0.106466  -0.001166  -0.021430
     80       0.063922   0.070589   0.125697  -0.021505   0.019004  -0.004441
     81      -0.111794  -0.073991  -0.050594  -0.387532  -0.351318  -0.028450
     82      -0.011720  -0.020637   0.054777  -0.263204  -0.214717  -0.014811
     83       0.003486   0.018276   0.022252   0.004232   0.030550   0.008749
     84      -0.300349   0.045149  -0.045347  -0.240716   0.308208   0.137680
     85       0.046702   0.064244   0.024424   0.147242  -0.102928  -0.080510
     86       0.094233   0.048770   0.022050   0.170188  -0.160210  -0.097399
     87      -0.314113   0.128244  -0.076966  -0.188487   0.269228   0.021603
     88      -0.107728   0.035381   0.002054   0.002648   0.061356  -0.079807
     89      -0.059761   0.018264   0.012225   0.030282   0.022261  -0.076643
     90      -0.271177  -0.171749   0.245323   0.175708  -0.106978   0.036758
     91      -0.112067  -0.011869   0.092460   0.123637  -0.096108   0.064990
     92      -0.068923   0.011773   0.053986   0.092545  -0.075777   0.056038
     93      -0.103469  -0.086944   0.097848   0.054436  -0.028517   0.054028
     94      -0.220501   0.110394   0.113285   0.280407  -0.215879   0.088297
     95      -0.193385   0.115365   0.093363   0.256285  -0.199157   0.075919
     96      -0.121370  -0.400695   0.246071  -0.033855   0.021963   0.197048
     97      -0.006265   0.201797  -0.080412   0.094913  -0.071900  -0.108040
     98       0.010257   0.242702  -0.108185   0.093547  -0.070393  -0.127549
     99      -0.209722  -0.354750   0.289523   0.081133  -0.047688   0.104710
    100      -0.084732  -0.053760   0.069847   0.056187  -0.030954  -0.045791
    101      -0.051924  -0.003478   0.027195   0.042053  -0.022574  -0.056992
    102      -0.269350   0.072348  -0.031384  -0.058137   0.226749  -0.186041
    103      -0.103959   0.129831  -0.048338  -0.008062   0.053657   0.013927
    104      -0.063113   0.108586  -0.030318   0.017318   0.047483   0.027420
    105      -0.208054  -0.164059  -0.371981  -0.133256  -0.246290   0.115357
    106       0.094407   0.089862   0.217477  -0.028192   0.052773  -0.066975
    107       0.057614   0.062061   0.108814   0.011170   0.040329  -0.025287
    108       0.155253  -0.082132   0.008489   0.218161   0.172351  -0.191405
    109      -0.102710   0.000945  -0.028464  -0.043993  -0.043619   0.042827
    110      -0.052124   0.012772  -0.009992  -0.047092  -0.039806   0.043306
                 90         91         92         93         94         95    
      0       0.035876  -0.024652  -0.028888   0.100182  -0.115711   0.113687
      1      -0.012069   0.009652   0.014139  -0.052350   0.067985  -0.072375
      2      -0.014313   0.009709   0.011983  -0.041352   0.049057  -0.048851
      3       0.084949   0.017494   0.035940  -0.145696   0.196830  -0.196871
      4      -0.089522   0.008892  -0.005426   0.052426  -0.124277   0.152656
      5      -0.051912   0.002944  -0.003946   0.028048  -0.056443   0.064248
      6      -0.006154  -0.000499  -0.013616   0.044673   0.000265   0.014286
      7       0.045098  -0.007545   0.016229  -0.052303   0.017091  -0.044657
      8       0.013650  -0.002113   0.005943  -0.019548   0.003545  -0.013088
      9      -0.010386   0.012579   0.020100  -0.078802   0.001638  -0.010186
     10      -0.003674   0.002587  -0.118275   0.285678   0.139935  -0.063820
     11       0.001149  -0.001665  -0.033504   0.085681   0.035045  -0.014426
     12      -0.028774   0.002727  -0.013887   0.092763  -0.046520   0.049837
     13       0.003714   0.001989   0.069029  -0.186721  -0.068221   0.021142
     14       0.006053   0.000215   0.019855  -0.062743  -0.008359  -0.003462
     15       0.046766  -0.025199  -0.046701   0.074794   0.136800  -0.088688
     16       0.003840  -0.006444  -0.043551   0.128757   0.089258  -0.037712
     17      -0.008160   0.002858  -0.002844   0.020508  -0.002758   0.005484
     18      -0.033148   0.057667  -0.015412  -0.050104  -0.107177   0.028426
     19       0.032477  -0.021690   0.051319  -0.186914  -0.100603   0.016901
     20       0.015942  -0.015810   0.012304  -0.045058  -0.015268  -0.002976
     21      -0.008610  -0.068678   0.103263   0.011062   0.119015   0.122085
     22      -0.049615   0.051996   0.100892   0.059133   0.068913   0.041421
     23      -0.040989   0.053793   0.079356   0.041153   0.040214   0.021583
     24      -0.052439   0.124280   0.048296   0.073888  -0.151863  -0.174706
     25       0.026661  -0.061006  -0.034248  -0.028956   0.008682   0.025381
     26       0.032322  -0.073003  -0.038323  -0.035841   0.032536   0.048305
     27       0.038174  -0.010018  -0.082753  -0.085569   0.155695   0.173949
     28      -0.013251   0.057818   0.016519   0.002223   0.017113   0.013687
     29      -0.017805   0.055866   0.026985   0.014416  -0.005067  -0.011521
     30       0.002215  -0.313723   0.213843   0.059815  -0.024547  -0.044564
     31       0.020946  -0.106526  -0.104696  -0.022515  -0.012811  -0.005591
     32       0.019409  -0.057177  -0.126508  -0.029627  -0.008422   0.001141
     33      -0.012893   0.304505  -0.168583  -0.016063  -0.026467  -0.005104
     34      -0.007992   0.122159   0.020749   0.014134  -0.012161  -0.004611
     35      -0.005740   0.073301   0.042027   0.015288  -0.007844  -0.003450
     36       0.014791  -0.179076   0.135199   0.009691  -0.019912  -0.070865
     37      -0.004802  -0.193443  -0.104807  -0.032858   0.008754  -0.009885
     38      -0.006493  -0.157205  -0.116225  -0.031975   0.010824   0.000089
     39      -0.002411   0.034940   0.081520   0.003750   0.089419   0.153047
     40       0.019040   0.035163   0.143492   0.014439   0.052072   0.084579
     41       0.018160   0.028392   0.123701   0.013077   0.036924   0.058936
     42       0.004763   0.019208  -0.060233   0.004068  -0.070819  -0.110447
     43      -0.040863  -0.034877  -0.214649  -0.021429  -0.059599  -0.094211
     44      -0.038977  -0.035284  -0.193388  -0.020646  -0.046503  -0.073714
     45      -0.056074  -0.112316  -0.151766  -0.049891   0.117286   0.173285
     46       0.033319   0.044441   0.108128   0.018885  -0.006840  -0.007838
     47       0.038716   0.056633   0.121634   0.024372  -0.022006  -0.030387
     48       0.021633   0.047263   0.144603   0.048297  -0.124732  -0.194253
     49      -0.020160  -0.035085  -0.042521  -0.005781  -0.015316  -0.027543
     50      -0.021794  -0.039151  -0.059071  -0.011814   0.002215  -0.000034
     51       0.057231   0.237907  -0.186475  -0.038898   0.024594   0.075956
     52       0.020819   0.076250   0.130685   0.028810   0.008844   0.021538
     53       0.012013   0.039873   0.147309   0.031947   0.005106   0.010066
     54      -0.055480  -0.294215   0.098795   0.028158   0.017649  -0.009100
     55      -0.013493  -0.130185  -0.042597  -0.007341   0.009442   0.003105
     56      -0.005285  -0.082974  -0.053169  -0.010632   0.006503   0.004166
     57       0.024748   0.236612  -0.036663  -0.051845   0.029832   0.064664
     58       0.000213   0.222103   0.111003   0.022879  -0.002096  -0.000188
     59      -0.003617   0.176941   0.108254   0.029757  -0.006245  -0.008783
     60       0.024676  -0.056075  -0.126880   0.014803  -0.105708  -0.134403
     61       0.030319  -0.042318  -0.099366  -0.024540  -0.054075  -0.053299
     62       0.023834  -0.032494  -0.075821  -0.022738  -0.036968  -0.031589
     63       0.041056   0.018258   0.005454  -0.014519   0.160020  -0.099398
     64      -0.034984   0.016400  -0.040623   0.108402   0.012031   0.013996
     65      -0.015672   0.002008  -0.010207   0.030303  -0.021955   0.021179
     66      -0.006160  -0.062592   0.045875  -0.071277  -0.240643   0.138491
     67       0.012156   0.006137   0.052491  -0.121946  -0.035454   0.015329
     68       0.003928   0.012109   0.005630  -0.017855   0.032887  -0.019629
     69      -0.055020   0.019512  -0.033105   0.089642  -0.000320   0.033368
     70       0.010262  -0.010651   0.000045  -0.001555  -0.009006  -0.004419
     71       0.012898  -0.006179   0.005455  -0.015085  -0.002711  -0.006353
     72      -0.198656   0.035660   0.028037  -0.066808   0.047903  -0.043015
     73       0.493462  -0.127861  -0.117195   0.337900  -0.320504   0.298371
     74       0.285345  -0.084396  -0.081017   0.237326  -0.228533   0.209003
     75      -0.660776   0.183271   0.161919  -0.452728   0.385025  -0.325707
     76      -0.025297   0.018453   0.025069  -0.089440   0.112953  -0.116917
     77       0.193363  -0.059742  -0.056613   0.163952  -0.152793   0.134678
     78       0.003054   0.015775   0.083123  -0.266779  -0.063417   0.008159
     79      -0.020219  -0.004099   0.021383   0.007956  -0.076616   0.056390
     80      -0.005150  -0.002561  -0.007334   0.045696  -0.007774   0.013082
     81      -0.077216   0.067466   0.108566  -0.266084  -0.221990   0.110196
     82      -0.063036   0.042932   0.037360  -0.038541  -0.093379   0.064834
     83       0.001764  -0.010442  -0.014267   0.042770   0.021418  -0.002797
     84       0.053965  -0.202715  -0.000642  -0.030733   0.090955   0.109371
     85      -0.031488   0.116982  -0.005315   0.038092  -0.126554  -0.140208
     86      -0.039821   0.144666  -0.000763   0.025843  -0.146633  -0.146127
     87      -0.003104  -0.161160   0.145735   0.063588  -0.111903  -0.111426
     88      -0.032146   0.025447   0.097551   0.058241  -0.085176  -0.097307
     89      -0.029812   0.042801   0.070580   0.046886  -0.067545  -0.078181
     90       0.006128  -0.143534  -0.192234  -0.024773  -0.107544  -0.187869
     91       0.024730  -0.027210   0.073634   0.005797  -0.004322  -0.016119
     92       0.022406  -0.006460   0.094857   0.008747   0.010376   0.009951
     93       0.021821   0.027563   0.017242   0.010090  -0.049899  -0.079732
     94       0.037660  -0.012825   0.222803   0.006558   0.101633   0.147899
     95       0.032519  -0.015842   0.207304   0.004798   0.102120   0.149633
     96       0.079471   0.125818   0.130823   0.037667  -0.062260  -0.086023
     97      -0.042900  -0.094788  -0.050288  -0.032400   0.104423   0.153820
     98      -0.050842  -0.105733  -0.064775  -0.035450   0.106192   0.155771
     99       0.045783   0.077451  -0.106534  -0.038475   0.091467   0.154869
    100      -0.017753  -0.039327  -0.140669  -0.039947   0.069904   0.108171
    101      -0.022709  -0.047115  -0.117923  -0.032492   0.053629   0.081068
    102      -0.033556   0.178100   0.294325  -0.004622   0.149027   0.179923
    103       0.012250   0.040538   0.017875  -0.025975   0.016061   0.037016
    104       0.020787   0.008856  -0.008548  -0.038656  -0.002045   0.015488
    105      -0.085069   0.024964  -0.088464   0.144916  -0.066650   0.043761
    106       0.040674   0.020208   0.015527   0.020447   0.174380  -0.081197
    107       0.025407   0.001063   0.005424  -0.018601   0.046865  -0.035385
    108       0.207552  -0.069962   0.088225  -0.224160  -0.008295  -0.093611
    109      -0.043067   0.005068  -0.023570   0.060681  -0.014006   0.024309
    110      -0.046206   0.013177  -0.020497   0.052219  -0.001879   0.021642
                 96         97         98         99        100        101    
      0      -0.051028   0.076516   0.000003   0.000004   0.000005   0.000011
      1       0.044137  -0.078560  -0.000004  -0.000004  -0.000004  -0.000022
      2       0.024371  -0.040333   0.000002  -0.000005   0.000002   0.000004
      3       0.087671  -0.125190  -0.000003  -0.000043  -0.000005   0.000009
      4      -0.128991   0.253888   0.000014  -0.000273   0.000018  -0.000000
      5      -0.044478   0.081028   0.000003  -0.000063   0.000004  -0.000002
      6      -0.007481  -0.002062   0.000008  -0.000032   0.000010   0.000043
      7       0.046980  -0.085933  -0.000009  -0.000012  -0.000008  -0.000088
      8       0.013079  -0.021420  -0.000004   0.000003  -0.000004  -0.000028
      9      -0.048579   0.173334  -0.000003  -0.001611   0.000012  -0.000630
     10       0.047020  -0.147493  -0.000010   0.002324  -0.000043   0.000909
     11       0.020163  -0.066566  -0.000002   0.000880  -0.000013   0.000349
     12       0.046718  -0.200130   0.000211  -0.037223   0.000590  -0.012315
     13      -0.031065   0.114662   0.000316  -0.059803   0.000856  -0.018384
     14      -0.016260   0.063804   0.000042  -0.008311   0.000110  -0.002396
     15      -0.027015   0.139755   0.000054  -0.017340  -0.000279   0.005220
     16      -0.004706   0.010095  -0.000167   0.040727   0.000428  -0.008361
     17       0.004743  -0.022186  -0.000052   0.012508   0.000151  -0.002991
     18       0.042343  -0.077947   0.000026  -0.001016   0.000007   0.000431
     19       0.007010   0.050053   0.000002  -0.000440  -0.000038   0.000508
     20      -0.000785   0.028694  -0.000003   0.000045  -0.000018   0.000111
     21      -0.142837  -0.064600  -0.000025  -0.000246  -0.000022   0.000711
     22      -0.068702  -0.035248  -0.000026   0.000303   0.000063  -0.000193
     23      -0.041625  -0.021795  -0.000020   0.000214   0.000061  -0.000232
     24       0.189468   0.094167   0.000189  -0.007839  -0.001068   0.024367
     25      -0.014067  -0.010509   0.000144  -0.007485  -0.001243   0.025931
     26      -0.041453  -0.022528   0.000120  -0.006042  -0.001062   0.021976
     27      -0.229821  -0.108410   0.000005  -0.002321  -0.001457   0.024370
     28      -0.039292  -0.016530  -0.000147   0.005117   0.002641  -0.046508
     29      -0.005076  -0.000313  -0.000140   0.005175   0.002707  -0.047507
     30       0.137996   0.061983   0.000154  -0.000165   0.000133   0.001816
     31       0.045956   0.018550   0.000064  -0.000070  -0.000080   0.001171
     32       0.023892   0.008970   0.000038  -0.000066  -0.000091   0.000832
     33       0.004449  -0.003796  -0.000056  -0.000016  -0.000135   0.000013
     34       0.017973   0.004792  -0.000056  -0.000002   0.000006  -0.000015
     35       0.016130   0.004884  -0.000045  -0.000006   0.000023  -0.000002
     36      -0.166072  -0.047375  -0.000792   0.000023  -0.001179  -0.000307
     37      -0.057928  -0.016331  -0.000008   0.000002  -0.000268  -0.000136
     38      -0.031939  -0.008873   0.000097   0.000005  -0.000093  -0.000086
     39       0.212434   0.057404   0.010485   0.000032   0.017068   0.000782
     40       0.106394   0.028090  -0.017690  -0.000056  -0.030681  -0.001148
     41       0.071483   0.018686  -0.017980  -0.000055  -0.031042  -0.001184
     42      -0.125913  -0.032724  -0.049589  -0.000259  -0.041820  -0.002727
     43      -0.111540  -0.028978   0.001518   0.000004   0.003586   0.000152
     44      -0.087926  -0.022832   0.008030   0.000038   0.008936   0.000507
     45       0.179734   0.046873   0.036090   0.000187  -0.023615  -0.001614
     46      -0.001490  -0.000243   0.032824   0.000182  -0.024612  -0.001610
     47      -0.025296  -0.006462   0.025997   0.000145  -0.019949  -0.001295
     48      -0.231767  -0.062654   0.009291   0.000090  -0.014162  -0.000672
     49      -0.047939  -0.013904  -0.019976  -0.000158   0.028228   0.001401
     50      -0.014230  -0.004742  -0.019978  -0.000161   0.028368   0.001405
     51       0.149650   0.042869   0.000585  -0.000010  -0.000979  -0.000088
     52       0.062907   0.019253   0.000475  -0.000002  -0.000407   0.000086
     53       0.039083   0.012507   0.000370  -0.000003  -0.000253   0.000093
     54      -0.007549   0.001984   0.000100   0.000001  -0.000066   0.000139
     55       0.006431   0.003909  -0.000002   0.000011  -0.000076  -0.000060
     56       0.007085   0.003397  -0.000015   0.000005  -0.000062  -0.000072
     57      -0.151123  -0.069958  -0.000181   0.000047   0.000086  -0.000529
     58      -0.033523  -0.014485  -0.000040  -0.000024   0.000122   0.000198
     59      -0.010817  -0.005038  -0.000013  -0.000027   0.000101   0.000265
     60       0.190385   0.092613   0.000074   0.000003   0.000236   0.001468
     61       0.074646   0.039553   0.000022   0.000391  -0.000486  -0.004082
     62       0.044832   0.022975   0.000005   0.000398  -0.000508  -0.004191
     63      -0.070448   0.253026  -0.000038  -0.000680   0.000166  -0.000237
     64       0.015311  -0.088195  -0.000032  -0.002200   0.000258  -0.000197
     65       0.014249  -0.065868   0.000003  -0.000390   0.000036  -0.000004
     66       0.094398  -0.329059   0.000011   0.000191  -0.000009   0.000094
     67      -0.021957   0.063919   0.000004   0.000275   0.000005   0.000152
     68      -0.021981   0.071804  -0.000002   0.000032   0.000003   0.000019
     69      -0.052100   0.112702  -0.000001   0.000150   0.000002   0.000017
     70       0.024406  -0.059922   0.000000   0.000008   0.000001  -0.000004
     71       0.014765  -0.033711  -0.000000  -0.000026  -0.000001   0.000001
     72       0.025794  -0.056912   0.000026   0.000029   0.000036   0.000106
     73      -0.132337   0.221558   0.000019   0.000022   0.000025   0.000092
     74      -0.083771   0.133685  -0.000013  -0.000026  -0.000018  -0.000061
     75       0.079418  -0.080924  -0.000003   0.000051  -0.000006   0.000020
     76       0.067096  -0.118575  -0.000028  -0.000031  -0.000037  -0.000135
     77      -0.044305   0.063615  -0.000026   0.000020  -0.000035  -0.000106
     78      -0.054856   0.200735  -0.002380   0.442883  -0.006361   0.135665
     79       0.028634  -0.124813  -0.003658   0.680637  -0.009736   0.207543
     80       0.015373  -0.064402  -0.000486   0.090974  -0.001288   0.027498
     81       0.012701  -0.067847  -0.000906   0.232315   0.002491  -0.047811
     82       0.016573  -0.102588   0.001848  -0.468420  -0.004940   0.094243
     83       0.001319  -0.014988   0.000586  -0.150360  -0.001586   0.030166
     84      -0.078084  -0.040922  -0.002009   0.089541   0.014875  -0.314739
     85       0.142722   0.070484  -0.001877   0.083832   0.013983  -0.296386
     86       0.150043   0.071001  -0.001563   0.070401   0.011605  -0.245729
     87       0.186139   0.079021  -0.000757   0.031852   0.016468  -0.287073
     88       0.113461   0.053725   0.001434  -0.059538  -0.030541   0.532557
     89       0.083991   0.040253   0.001461  -0.060707  -0.031280   0.545288
     90      -0.257973  -0.068763  -0.109455  -0.000350  -0.183806  -0.007169
     91      -0.039181  -0.011305   0.215262   0.000684   0.361581   0.014003
     92      -0.002308  -0.001360   0.216424   0.000690   0.363525   0.014085
     93      -0.096127  -0.025322   0.579265   0.002967   0.485543   0.030957
     94       0.142990   0.035791  -0.025021  -0.000126  -0.023245  -0.001487
     95       0.147158   0.037006  -0.100686  -0.000518  -0.086530  -0.005513
     96      -0.061480  -0.013863  -0.415020  -0.002270   0.289389   0.018998
     97       0.152606   0.038850  -0.386706  -0.002116   0.272769   0.017902
     98       0.151430   0.038296  -0.307631  -0.001685   0.217441   0.014271
     99       0.200325   0.054281  -0.127773  -0.001040   0.178577   0.008881
    100       0.114455   0.029654   0.231605   0.001871  -0.323541  -0.016088
    101       0.080968   0.020744   0.234290   0.001892  -0.327305  -0.016276
    102      -0.244637  -0.108910   0.000005   0.001715  -0.002783  -0.021464
    103      -0.052541  -0.025375  -0.000038  -0.003988   0.005683   0.045060
    104      -0.024752  -0.002964  -0.000040  -0.004030   0.005924   0.046594
    105       0.057002  -0.182010   0.000311   0.013293  -0.001894   0.002120
    106      -0.073810   0.199663   0.000460   0.021049  -0.002844   0.002910
    107      -0.018276   0.083580   0.000059   0.002554  -0.000325   0.000327
    108       0.176799  -0.404949  -0.000004  -0.000078  -0.000002  -0.000013
    109      -0.018608   0.035733  -0.000008  -0.001438  -0.000016  -0.000495
    110      -0.034393   0.077033  -0.000001  -0.000332  -0.000003  -0.000118
                102        103        104        105        106        107    
      0      -0.000037   0.000023   0.000001  -0.000032   0.000010  -0.000017
      1       0.000016  -0.000061  -0.000003   0.000027  -0.000010   0.000027
      2      -0.000012   0.000012   0.000001  -0.000013   0.000005  -0.000010
      3      -0.000063   0.000125   0.000004  -0.000114  -0.000002  -0.000042
      4      -0.000039   0.000121   0.000007  -0.000069   0.000033  -0.000100
      5      -0.000001   0.000006   0.000001   0.000002   0.000007  -0.000012
      6      -0.000106   0.000176   0.000007  -0.000121   0.000026  -0.000088
      7      -0.000026  -0.000289  -0.000014   0.000062  -0.000022   0.000113
      8       0.000030  -0.000106  -0.000005   0.000046  -0.000011   0.000048
      9       0.000051  -0.001553  -0.000065   0.000442  -0.000044   0.000419
     10       0.000845   0.002140   0.000101   0.000179  -0.000039  -0.000489
     11       0.000194   0.000812   0.000037  -0.000058   0.000001  -0.000187
     12      -0.005517  -0.025922  -0.001148   0.001972   0.000131   0.005124
     13      -0.007253  -0.036200  -0.001595   0.003131   0.000083   0.006604
     14      -0.000827  -0.004415  -0.000193   0.000449  -0.000002   0.000730
     15       0.007814   0.030234   0.001383  -0.000418  -0.000608  -0.010422
     16      -0.013267  -0.057019  -0.002595   0.001361   0.001135   0.020577
     17      -0.004454  -0.018561  -0.000845   0.000447   0.000350   0.006407
     18      -0.000986   0.001939   0.000068  -0.001099   0.000079  -0.000549
     19       0.002522   0.001588   0.000102   0.001291  -0.000120  -0.000177
     20       0.000953   0.000078   0.000015   0.000376  -0.000027   0.000201
     21      -0.001956   0.000973   0.000042   0.001706  -0.000182   0.001343
     22      -0.001957  -0.000246  -0.000016   0.001614  -0.000183  -0.001164
     23      -0.001399  -0.000173  -0.000010   0.001411  -0.000157  -0.001324
     24       0.004418   0.008006   0.000246  -0.007128   0.002725   0.049298
     25       0.003115   0.005908   0.000143  -0.005897   0.002300   0.042666
     26       0.002339   0.004398   0.000093  -0.004784   0.001884   0.035039
     27      -0.001858  -0.011374  -0.000576   0.001374  -0.000447  -0.018196
     28       0.002504   0.019352   0.001034  -0.001464   0.000301   0.025989
     29       0.002640   0.019927   0.001060  -0.001594   0.000349   0.027153
     30      -0.000059  -0.000998  -0.000170   0.000095   0.000196  -0.001658
     31      -0.000364  -0.000529  -0.000164   0.000379  -0.000057  -0.000980
     32      -0.000318  -0.000325  -0.000128   0.000346  -0.000079  -0.000699
     33       0.000013   0.000100  -0.000214  -0.000064   0.000054   0.000186
     34       0.000098   0.000005   0.000031  -0.000113   0.000099   0.000034
     35       0.000094  -0.000002   0.000058  -0.000095   0.000085   0.000019
     36       0.000052  -0.000052   0.002292  -0.000220  -0.001890   0.000212
     37      -0.000070   0.000047   0.000015   0.000079  -0.000367   0.000064
     38      -0.000066   0.000040  -0.000293   0.000095  -0.000089   0.000028
     39       0.000155   0.000770  -0.015833   0.001189   0.012311  -0.000576
     40      -0.000239  -0.001848   0.035734  -0.003063  -0.030510   0.001264
     41      -0.000247  -0.001837   0.035619  -0.003028  -0.030251   0.001260
     42      -0.000736   0.002150  -0.029911   0.005309   0.048821  -0.001418
     43       0.000052   0.000064  -0.001884  -0.000108  -0.001323   0.000052
     44       0.000148  -0.000226   0.002216  -0.000809  -0.007745   0.000238
     45      -0.000880  -0.000460   0.023789   0.002978   0.029923  -0.000944
     46      -0.000757  -0.000228   0.017102   0.002682   0.027013  -0.000894
     47      -0.000590  -0.000152   0.012881   0.002119   0.021364  -0.000713
     48       0.000319   0.000834  -0.022954  -0.001535  -0.017635   0.000633
     49      -0.000360  -0.001439   0.036928   0.002137   0.026444  -0.001050
     50      -0.000379  -0.001458   0.037700   0.002212   0.027156  -0.001067
     51      -0.000170   0.000158  -0.001732   0.000103  -0.001575   0.000145
     52      -0.000053   0.000036  -0.001378   0.000003  -0.000772  -0.000010
     53      -0.000027   0.000013  -0.001063  -0.000008  -0.000515  -0.000030
     54      -0.000052  -0.000088   0.000127   0.000049   0.000123  -0.000052
     55      -0.000001   0.000010   0.000142  -0.000003  -0.000030   0.000063
     56       0.000001   0.000028   0.000117  -0.000016  -0.000044   0.000069
     57       0.001966  -0.000360   0.000207  -0.002149   0.000321  -0.000319
     58       0.000287  -0.000213  -0.000020  -0.000220   0.000147  -0.000225
     59      -0.000041  -0.000140  -0.000047   0.000111   0.000089  -0.000132
     60      -0.017338   0.004707   0.000145   0.019176  -0.002114   0.002350
     61       0.037601  -0.010792  -0.000390  -0.041533   0.004526  -0.005652
     62       0.038812  -0.011145  -0.000403  -0.043367   0.004720  -0.005842
     63      -0.035359   0.005773  -0.000294  -0.031870   0.002521  -0.002937
     64      -0.053011   0.009423  -0.000411  -0.048443   0.003855  -0.004601
     65      -0.006151   0.001192  -0.000042  -0.005402   0.000433  -0.000545
     66       0.003226  -0.000383   0.000033   0.002808  -0.000207   0.000221
     67      -0.000356   0.000385   0.000013  -0.000261   0.000032  -0.000066
     68      -0.000698   0.000179  -0.000003  -0.000575   0.000044  -0.000074
     69      -0.000212  -0.000022  -0.000004  -0.000150   0.000017   0.000012
     70      -0.000056   0.000003  -0.000000  -0.000065   0.000007  -0.000015
     71       0.000026   0.000008   0.000001   0.000018  -0.000002  -0.000001
     72      -0.000273   0.000271   0.000013  -0.000268   0.000094  -0.000177
     73      -0.000108   0.000242   0.000012  -0.000131   0.000061  -0.000135
     74       0.000118  -0.000152  -0.000007   0.000115  -0.000044   0.000091
     75       0.000053   0.000052   0.000002   0.000021  -0.000011   0.000002
     76       0.000187  -0.000369  -0.000019   0.000215  -0.000092   0.000209
     77       0.000195  -0.000288  -0.000015   0.000210  -0.000084   0.000174
     78       0.054478   0.267368   0.011791  -0.022857  -0.000699  -0.049092
     79       0.082678   0.406890   0.017938  -0.034740  -0.001054  -0.074011
     80       0.010942   0.053751   0.002370  -0.004580  -0.000138  -0.009825
     81      -0.079091  -0.327837  -0.014964   0.005256   0.006824   0.119484
     82       0.155611   0.651132   0.029700  -0.011231  -0.013557  -0.236475
     83       0.050172   0.210184   0.009587  -0.003685  -0.004399  -0.077058
     84      -0.041888  -0.070141  -0.001765   0.077141  -0.029189  -0.531480
     85      -0.038181  -0.064896  -0.001585   0.071334  -0.027221  -0.494401
     86      -0.031868  -0.055005  -0.001367   0.059029  -0.022461  -0.407891
     87       0.015904   0.118787   0.006203  -0.009129   0.002143   0.160162
     88      -0.029172  -0.218984  -0.011504   0.016776  -0.003823  -0.292344
     89      -0.029832  -0.224675  -0.011794   0.017205  -0.003934  -0.299832
     90      -0.001516  -0.010098   0.197320  -0.016170  -0.161978   0.006794
     91       0.002995   0.020124  -0.392549   0.032423   0.325060  -0.013582
     92       0.003011   0.020210  -0.394362   0.032558   0.326374  -0.013641
     93       0.008199  -0.023313   0.322957  -0.057521  -0.528864   0.015520
     94      -0.000414   0.000945  -0.011757   0.002569   0.023608  -0.000661
     95      -0.001476   0.003997  -0.054062   0.010071   0.092615  -0.002680
     96       0.009139   0.003744  -0.226133  -0.031436  -0.317214   0.010355
     97       0.008559   0.003287  -0.207133  -0.029485  -0.296700   0.009652
     98       0.006821   0.002589  -0.164264  -0.023490  -0.236188   0.007678
     99      -0.002490  -0.009064   0.234600   0.013843   0.167870  -0.006535
    100       0.004382   0.016286  -0.420402  -0.024528  -0.298382   0.011589
    101       0.004447   0.016486  -0.425629  -0.024855  -0.302274   0.011742
    102       0.205176  -0.058664  -0.002180  -0.230517   0.025039  -0.029254
    103      -0.423778   0.121774   0.004584   0.475432  -0.051646   0.061451
    104      -0.440871   0.126523   0.004753   0.493633  -0.053640   0.063369
    105       0.397692  -0.067510   0.003238   0.364789  -0.029053   0.033419
    106       0.603062  -0.103329   0.004869   0.552814  -0.043969   0.050577
    107       0.069892  -0.012094   0.000563   0.064525  -0.005134   0.005992
    108      -0.000828   0.000172  -0.000007  -0.000781   0.000048  -0.000068
    109       0.000772  -0.000924  -0.000035   0.000818  -0.000128   0.000218
    110       0.000355  -0.000262  -0.000007   0.000371  -0.000042   0.000068
                108        109        110    
      0      -0.037707   0.001033  -0.047814
      1       0.019354  -0.001097  -0.069682
      2       0.035469  -0.001038  -0.012907
      3       0.001491   0.001438  -0.000710
      4      -0.000858   0.000664  -0.000280
      5       0.000730  -0.000188  -0.000004
      6       0.000462   0.000104  -0.000171
      7      -0.000939   0.001291   0.000292
      8      -0.000210   0.000311  -0.000050
      9      -0.000378   0.000490   0.000018
     10      -0.000013   0.000857   0.000062
     11      -0.000074   0.000138   0.000040
     12      -0.000032  -0.000183  -0.000004
     13       0.000040  -0.000104   0.000002
     14       0.000021   0.000009   0.000008
     15       0.000134   0.000105   0.000008
     16       0.000093   0.000201  -0.000000
     17      -0.000009   0.000051  -0.000005
     18       0.000171   0.000029  -0.000007
     19      -0.000252  -0.000225  -0.000004
     20      -0.000115  -0.000060   0.000002
     21      -0.000176   0.000078   0.000006
     22      -0.000017   0.000000  -0.000000
     23       0.000037  -0.000014   0.000001
     24       0.000050  -0.000024  -0.000000
     25      -0.000014   0.000003  -0.000000
     26      -0.000008   0.000008   0.000001
     27      -0.000032   0.000009   0.000002
     28      -0.000004  -0.000004   0.000000
     29       0.000002   0.000003   0.000001
     30       0.000049  -0.000022  -0.000000
     31      -0.000004   0.000004   0.000001
     32      -0.000010   0.000009   0.000001
     33      -0.000037   0.000014   0.000002
     34      -0.000015   0.000004   0.000002
     35      -0.000010   0.000005   0.000001
     36       0.000029  -0.000012  -0.000000
     37       0.000024  -0.000013   0.000002
     38       0.000020  -0.000010   0.000001
     39      -0.000022   0.000009   0.000001
     40       0.000001  -0.000004   0.000003
     41       0.000005  -0.000003   0.000002
     42       0.000011  -0.000005  -0.000001
     43       0.000010  -0.000006   0.000003
     44       0.000010  -0.000006   0.000001
     45       0.000011  -0.000005  -0.000001
     46      -0.000014   0.000006   0.000004
     47      -0.000011   0.000002   0.000001
     48      -0.000005   0.000002  -0.000001
     49      -0.000013   0.000008   0.000003
     50      -0.000009   0.000001   0.000001
     51       0.000014  -0.000006  -0.000001
     52      -0.000010   0.000005   0.000002
     53      -0.000007   0.000001   0.000001
     54       0.000010  -0.000007  -0.000001
     55       0.000006  -0.000003   0.000001
     56       0.000005  -0.000005   0.000000
     57      -0.000067   0.000038   0.000001
     58       0.000015  -0.000010   0.000001
     59       0.000014  -0.000005   0.000000
     60       0.000092  -0.000056  -0.000002
     61       0.000026  -0.000002  -0.000001
     62      -0.000002  -0.000004  -0.000000
     63      -0.000308  -0.000250  -0.000005
     64       0.000083   0.000088   0.000007
     65       0.000090   0.000067  -0.000009
     66       0.000310  -0.000949   0.000096
     67       0.000206   0.001715  -0.000049
     68      -0.000049   0.000554  -0.000029
     69       0.000156  -0.017070   0.000533
     70      -0.001998  -0.072318   0.000238
     71      -0.000515  -0.014456   0.000091
     72       0.583527  -0.014648   0.580071
     73       0.365691  -0.008404   0.361673
     74      -0.156959   0.003348  -0.168715
     75      -0.089563   0.001749   0.086572
     76      -0.611921   0.020505   0.606535
     77      -0.338841   0.011125   0.348618
     78      -0.000227   0.000874  -0.000008
     79      -0.000219   0.001287  -0.000028
     80      -0.000108   0.000152   0.000028
     81       0.000274  -0.000058  -0.000010
     82      -0.000359  -0.000014   0.000023
     83      -0.000117  -0.000013  -0.000004
     84      -0.000098   0.000045   0.000003
     85      -0.000015  -0.000028   0.000001
     86      -0.000003  -0.000050   0.000002
     87       0.000067  -0.000051   0.000001
     88      -0.000065   0.000039   0.000000
     89      -0.000088   0.000054   0.000002
     90       0.000040  -0.000021   0.000000
     91      -0.000072   0.000033   0.000004
     92      -0.000072   0.000037   0.000003
     93       0.000018  -0.000013  -0.000000
     94       0.000000  -0.000002   0.000004
     95       0.000000  -0.000002   0.000002
     96       0.000049  -0.000025  -0.000003
     97       0.000036  -0.000017   0.000004
     98       0.000030  -0.000020   0.000000
     99      -0.000031   0.000020  -0.000001
    100       0.000049  -0.000028   0.000002
    101       0.000055  -0.000039  -0.000001
    102      -0.000028   0.000036  -0.000002
    103      -0.000037   0.000083   0.000001
    104      -0.000030   0.000046   0.000000
    105       0.000314  -0.000093   0.000025
    106       0.000433  -0.001295   0.000019
    107      -0.000036  -0.000212  -0.000016
    108       0.005419   0.225301  -0.000116
    109       0.026845   0.952141  -0.004468
    110       0.005862   0.189935  -0.001324


-----------
IR SPECTRUM
-----------

 Mode   freq       eps      Int      T**2         TX        TY        TZ
       cm**-1   L/(mol*cm) km/mol    a.u.
----------------------------------------------------------------------------
  6:     33.52   0.000142    0.72  0.001325  ( 0.006007  0.017775 -0.031191)
  7:     36.14   0.000817    4.13  0.007055  (-0.013212 -0.018802  0.080790)
  8:     56.83   0.000681    3.44  0.003737  ( 0.052136  0.025056 -0.019773)
  9:     90.53   0.000070    0.35  0.000240  ( 0.001622 -0.009294  0.012284)
 10:    113.71   0.001000    5.05  0.002744  (-0.016051 -0.028571  0.040869)
 11:    144.99   0.001744    8.82  0.003755  ( 0.037571 -0.024349  0.041837)
 12:    198.86   0.001465    7.40  0.002298  (-0.004117  0.001196 -0.047749)
 13:    204.93   0.001505    7.60  0.002291  ( 0.019772 -0.013751  0.041367)
 14:    215.59   0.001679    8.49  0.002430  (-0.044616 -0.020923  0.001424)
 15:    264.33   0.001849    9.35  0.002183  ( 0.041147 -0.011602  0.018861)
 16:    271.33   0.000457    2.31  0.000526  ( 0.004650  0.021444 -0.006661)
 17:    303.73   0.001881    9.51  0.001933  ( 0.008457  0.042093  0.009446)
 18:    330.33   0.000688    3.48  0.000650  (-0.015707  0.008801 -0.018060)
 19:    355.98   0.061570  311.15  0.053974  (-0.169716  0.152613 -0.043360)
 20:    384.71   0.018628   94.14  0.015111  (-0.093518  0.059347 -0.053319)
 21:    401.19   0.005754   29.08  0.004475  (-0.001825  0.030161 -0.059685)
 22:    412.83   0.061807  312.35  0.046721  (-0.183486  0.073446 -0.087517)
 23:    429.03   0.013992   70.71  0.010177  ( 0.076407 -0.041650  0.051036)
 24:    445.24   0.002562   12.95  0.001796  ( 0.041818 -0.000639  0.006811)
 25:    451.53   0.002756   13.93  0.001904  ( 0.007812 -0.016497  0.039639)
 26:    491.40   0.025175  127.22  0.015988  ( 0.016722 -0.036573  0.119877)
 27:    496.92   0.000189    0.95  0.000119  ( 0.007032  0.005554 -0.006186)
 28:    506.90   0.000363    1.83  0.000223  ( 0.006889  0.006379 -0.011627)
 29:    510.57   0.000036    0.18  0.000022  ( 0.002218  0.001928 -0.003665)
 30:    532.96   0.000061    0.31  0.000035  (-0.001601  0.005371 -0.002017)
 31:    539.74   0.003809   19.25  0.002202  (-0.043022  0.006278  0.017663)
 32:    561.02   0.000299    1.51  0.000166  ( 0.002238  0.008992 -0.008976)
 33:    573.13   0.001075    5.43  0.000585  ( 0.003255  0.015441  0.018331)
 34:    620.01   0.004893   24.73  0.002463  ( 0.047871  0.008536  0.009916)
 35:    625.29   0.002442   12.34  0.001219  (-0.023221 -0.007649  0.024923)
 36:    635.94   0.000608    3.07  0.000298  (-0.016254 -0.005184  0.002677)
 37:    681.50   0.003003   15.18  0.001375  (-0.033108  0.016258  0.003834)
 38:    690.16   0.000905    4.57  0.000409  ( 0.003817 -0.019799 -0.001648)
 39:    720.67   0.004331   21.89  0.001876  (-0.025957  0.032108  0.013070)
 40:    744.99   0.004261   21.53  0.001785  ( 0.038838  0.009426  0.013702)
 41:    749.51   0.000489    2.47  0.000204  (-0.001981 -0.005513  0.013009)
 42:    761.71   0.001059    5.35  0.000434  ( 0.019971  0.005688  0.001576)
 43:    784.06   0.006714   33.93  0.002672  (-0.001637  0.036548 -0.036520)
 44:    786.76   0.013243   66.93  0.005253  ( 0.006355 -0.047103  0.054715)
 45:    793.04   0.000511    2.58  0.000201  (-0.009127  0.001041 -0.010810)
 46:    831.75   0.005017   25.35  0.001882  ( 0.009759 -0.018712  0.037906)
 47:    846.57   0.010150   51.29  0.003741  (-0.000415  0.018171 -0.058405)
 48:    858.14   0.007516   37.99  0.002733  (-0.048900 -0.015910 -0.009435)
 49:    876.78   0.004272   21.59  0.001521  (-0.001266 -0.029022  0.026015)
 50:    883.42   0.001089    5.50  0.000385  (-0.019253  0.002669 -0.002596)
 51:    905.53   0.003444   17.41  0.001187  (-0.018340  0.007067 -0.028296)
 52:    912.22   0.001133    5.72  0.000387  ( 0.003394  0.006443  0.018289)
 53:    920.78   0.000577    2.92  0.000196  ( 0.006847  0.012096 -0.001575)
 54:    927.22   0.000809    4.09  0.000272  (-0.007315  0.012476  0.007949)
 55:    941.40   0.001573    7.95  0.000522  (-0.007351 -0.016997  0.013363)
 56:    969.48   0.000991    5.01  0.000319  ( 0.012270  0.012341  0.004017)
 57:    982.34   0.000179    0.90  0.000057  (-0.005568  0.003563 -0.003620)
 58:   1007.87   0.000153    0.77  0.000047  ( 0.000622 -0.004516  0.005165)
 59:   1023.23   0.002392   12.09  0.000730  (-0.025666 -0.007344 -0.004120)
 60:   1024.38   0.000113    0.57  0.000034  ( 0.004988  0.002731  0.001415)
 61:   1027.45   0.000541    2.73  0.000164  (-0.010035  0.007967  0.000289)
 62:   1038.86   0.000000    0.00  0.000000  ( 0.000022 -0.000184  0.000157)
 63:   1039.77   0.001088    5.50  0.000327  (-0.017272  0.002852  0.004497)
 64:   1102.21   0.002181   11.02  0.000618  (-0.011042 -0.021989 -0.003482)
 65:   1135.54   0.002493   12.60  0.000685  (-0.024077 -0.009819 -0.003016)
 66:   1138.51   0.009161   46.29  0.002511  ( 0.045262 -0.010521 -0.018749)
 67:   1145.76   0.010501   53.07  0.002860  ( 0.050565  0.015474  0.007984)
 68:   1161.47   0.007343   37.11  0.001973  ( 0.029537  0.026132  0.020433)
 69:   1201.18   0.005036   25.45  0.001308  (-0.035648  0.002765  0.005474)
 70:   1224.07   0.003465   17.51  0.000883  ( 0.029485 -0.002115 -0.003094)
 71:   1252.63   0.004607   23.28  0.001148  (-0.033198  0.005952  0.003184)
 72:   1257.00   0.002563   12.95  0.000636  ( 0.014936  0.018832  0.007653)
 73:   1275.36   0.010469   52.91  0.002562  (-0.050391  0.000393  0.004710)
 74:   1287.44   0.001052    5.32  0.000255  ( 0.010834  0.008700  0.007870)
 75:   1309.22   0.040210  203.20  0.009584  (-0.086293  0.040640  0.022053)
 76:   1328.73   0.012100   61.15  0.002842  (-0.042501  0.029428  0.013021)
 77:   1335.19   0.073747  372.69  0.017236  (-0.126710  0.024747  0.023843)
 78:   1339.20   0.010881   54.99  0.002536  (-0.049210  0.006221  0.008674)
 79:   1369.17   0.000653    3.30  0.000149  ( 0.011065  0.004833 -0.001757)
 80:   1392.59   0.015878   80.24  0.003558  ( 0.057073  0.015018  0.008672)
 81:   1403.23   0.001587    8.02  0.000353  ( 0.013503  0.012105  0.004913)
 82:   1448.19   0.004948   25.01  0.001066  ( 0.030023 -0.011100 -0.006456)
 83:   1470.67   0.026089  131.84  0.005536  (-0.036779 -0.063335 -0.013105)
 84:   1471.89   0.089699  453.30  0.019018  (-0.133668  0.031109  0.013512)
 85:   1500.47   0.012320   62.26  0.002562  (-0.042102  0.021618  0.017953)
 86:   1504.55   0.029781  150.50  0.006177  (-0.072998  0.023838  0.016732)
 87:   1516.68   0.006715   33.93  0.001382  (-0.018001  0.028872  0.014965)
 88:   1537.43   0.008146   41.17  0.001654  ( 0.036316  0.017929 -0.003639)
 89:   1562.20   0.004934   24.94  0.000986  (-0.014180  0.026883  0.007866)
 90:   1563.97   0.054876  277.32  0.010950  ( 0.101946 -0.023331 -0.003500)
 91:   1594.95   0.011308   57.14  0.002212  ( 0.046555  0.006653 -0.000872)
 92:   1599.60   0.014389   72.72  0.002807  ( 0.052892  0.000165 -0.003080)
 93:   1614.87   0.108790  549.78  0.021023  (-0.134796  0.040342  0.035011)
 94:   1648.68   0.156153  789.13  0.029557  ( 0.164704 -0.036554 -0.033065)
 95:   1656.27   0.044840  226.60  0.008448  (-0.062248  0.058178  0.034479)
 96:   1687.23   0.009863   49.85  0.001824  (-0.015456 -0.037723 -0.012743)
 97:   1697.22   0.055304  279.48  0.010169  (-0.070042  0.066092  0.029910)
 98:   3182.83   0.000138    0.70  0.000014  ( 0.001415  0.002571  0.002216)
 99:   3184.01   0.003319   16.78  0.000325  (-0.017299 -0.004953  0.001246)
100:   3190.72   0.000019    0.10  0.000002  (-0.000996 -0.000690 -0.000640)
101:   3192.15   0.001109    5.61  0.000108  (-0.001317 -0.008959 -0.005143)
102:   3196.75   0.001285    6.49  0.000125  (-0.009494 -0.005633  0.001888)
103:   3199.53   0.001259    6.36  0.000123  (-0.000067 -0.010939 -0.001766)
104:   3199.62   0.002941   14.86  0.000287  (-0.005144  0.011190  0.011625)
105:   3203.82   0.001538    7.77  0.000150  ( 0.010449 -0.005201 -0.003679)
106:   3205.29   0.005731   28.96  0.000558  ( 0.022227  0.007168  0.003542)
107:   3209.68   0.002863   14.47  0.000278  ( 0.005269  0.012987  0.009049)
108:   3570.31   0.055741  281.69  0.004872  ( 0.059153 -0.023574 -0.028586)
109:   3623.81   0.036762  185.78  0.003166  ( 0.000973  0.054770  0.012846)
110:   3681.63   0.021885  110.60  0.001855  ( 0.023411  0.035492  0.006872)

* The epsilon (eps) is given for a Dirac delta lineshape.
** The dipole moment derivative (T) already includes vibrational overlap.

The first frequency considered to be a vibration is 6
The total number of vibrations considered is 105


--------------------------
THERMOCHEMISTRY AT 298.15K
--------------------------

Temperature         ...   298.15 K
Pressure            ...     1.00 atm
Total Mass          ...   311.35 AMU
Quasi RRHO          ...     True
Cut-Off Frequency   ...     1.00 cm^-1

Throughout the following assumptions are being made:
  (1) The electronic state is orbitally nondegenerate
  (2) There are no thermally accessible electronically excited states
  (3) Hindered rotations indicated by low frequency modes are not
      treated as such but are treated as vibrations and this may
      cause some error
  (4) All equations used are the standard statistical mechanics
      equations for an ideal gas
  (5) All vibrations are strictly harmonic

freq.      33.52  E(vib)   ...       0.55 
freq.      36.14  E(vib)   ...       0.54 
freq.      56.83  E(vib)   ...       0.51 
freq.      90.53  E(vib)   ...       0.47 
freq.     113.71  E(vib)   ...       0.44 
freq.     144.99  E(vib)   ...       0.41 
freq.     198.86  E(vib)   ...       0.35 
freq.     204.93  E(vib)   ...       0.35 
freq.     215.59  E(vib)   ...       0.34 
freq.     264.33  E(vib)   ...       0.29 
freq.     271.33  E(vib)   ...       0.29 
freq.     303.73  E(vib)   ...       0.26 
freq.     330.33  E(vib)   ...       0.24 
freq.     355.98  E(vib)   ...       0.22 
freq.     384.71  E(vib)   ...       0.20 
freq.     401.19  E(vib)   ...       0.19 
freq.     412.83  E(vib)   ...       0.19 
freq.     429.03  E(vib)   ...       0.18 
freq.     445.24  E(vib)   ...       0.17 
freq.     451.53  E(vib)   ...       0.16 
freq.     491.40  E(vib)   ...       0.14 
freq.     496.92  E(vib)   ...       0.14 
freq.     506.90  E(vib)   ...       0.14 
freq.     510.57  E(vib)   ...       0.14 
freq.     532.96  E(vib)   ...       0.13 
freq.     539.74  E(vib)   ...       0.12 
freq.     561.02  E(vib)   ...       0.11 
freq.     573.13  E(vib)   ...       0.11 
freq.     620.01  E(vib)   ...       0.09 
freq.     625.29  E(vib)   ...       0.09 
freq.     635.94  E(vib)   ...       0.09 
freq.     681.50  E(vib)   ...       0.08 
freq.     690.16  E(vib)   ...       0.07 
freq.     720.67  E(vib)   ...       0.07 
freq.     744.99  E(vib)   ...       0.06 
freq.     749.51  E(vib)   ...       0.06 
freq.     761.71  E(vib)   ...       0.06 
freq.     784.06  E(vib)   ...       0.05 
freq.     786.76  E(vib)   ...       0.05 
freq.     793.04  E(vib)   ...       0.05 
freq.     831.75  E(vib)   ...       0.04 
freq.     846.57  E(vib)   ...       0.04 
freq.     858.14  E(vib)   ...       0.04 
freq.     876.78  E(vib)   ...       0.04 
freq.     883.42  E(vib)   ...       0.04 
freq.     905.53  E(vib)   ...       0.03 
freq.     912.22  E(vib)   ...       0.03 
freq.     920.78  E(vib)   ...       0.03 
freq.     927.22  E(vib)   ...       0.03 
freq.     941.40  E(vib)   ...       0.03 
freq.     969.48  E(vib)   ...       0.03 
freq.     982.34  E(vib)   ...       0.02 
freq.    1007.87  E(vib)   ...       0.02 
freq.    1023.23  E(vib)   ...       0.02 
freq.    1024.38  E(vib)   ...       0.02 
freq.    1027.45  E(vib)   ...       0.02 
freq.    1038.86  E(vib)   ...       0.02 
freq.    1039.77  E(vib)   ...       0.02 
freq.    1102.21  E(vib)   ...       0.02 
freq.    1135.54  E(vib)   ...       0.01 
freq.    1138.51  E(vib)   ...       0.01 
freq.    1145.76  E(vib)   ...       0.01 
freq.    1161.47  E(vib)   ...       0.01 
freq.    1201.18  E(vib)   ...       0.01 
freq.    1224.07  E(vib)   ...       0.01 
freq.    1252.63  E(vib)   ...       0.01 
freq.    1257.00  E(vib)   ...       0.01 
freq.    1275.36  E(vib)   ...       0.01 
freq.    1287.44  E(vib)   ...       0.01 
freq.    1309.22  E(vib)   ...       0.01 
freq.    1328.73  E(vib)   ...       0.01 
freq.    1335.19  E(vib)   ...       0.01 
freq.    1339.20  E(vib)   ...       0.01 
freq.    1369.17  E(vib)   ...       0.01 
freq.    1392.59  E(vib)   ...       0.00 
freq.    1403.23  E(vib)   ...       0.00 
freq.    1448.19  E(vib)   ...       0.00 
freq.    1470.67  E(vib)   ...       0.00 
freq.    1471.89  E(vib)   ...       0.00 
freq.    1500.47  E(vib)   ...       0.00 
freq.    1504.55  E(vib)   ...       0.00 
freq.    1516.68  E(vib)   ...       0.00 
freq.    1537.43  E(vib)   ...       0.00 
freq.    1562.20  E(vib)   ...       0.00 
freq.    1563.97  E(vib)   ...       0.00 
freq.    1594.95  E(vib)   ...       0.00 
freq.    1599.60  E(vib)   ...       0.00 
freq.    1614.87  E(vib)   ...       0.00 
freq.    1648.68  E(vib)   ...       0.00 
freq.    1656.27  E(vib)   ...       0.00 
freq.    1687.23  E(vib)   ...       0.00 
freq.    1697.22  E(vib)   ...       0.00 
freq.    3182.83  E(vib)   ...       0.00 
freq.    3184.01  E(vib)   ...       0.00 
freq.    3190.72  E(vib)   ...       0.00 
freq.    3192.15  E(vib)   ...       0.00 
freq.    3196.75  E(vib)   ...       0.00 
freq.    3199.53  E(vib)   ...       0.00 
freq.    3199.62  E(vib)   ...       0.00 
freq.    3203.82  E(vib)   ...       0.00 
freq.    3205.29  E(vib)   ...       0.00 
freq.    3209.68  E(vib)   ...       0.00 
freq.    3570.31  E(vib)   ...       0.00 
freq.    3623.81  E(vib)   ...       0.00 
freq.    3681.63  E(vib)   ...       0.00 

------------
INNER ENERGY
------------

The inner energy is: U= E(el) + E(ZPE) + E(vib) + E(rot) + E(trans)
    E(el)   - is the total energy from the electronic structure calculation
              = E(kin-el) + E(nuc-el) + E(el-el) + E(nuc-nuc)
    E(ZPE)  - the the zero temperature vibrational energy from the frequency calculation
    E(vib)  - the the finite temperature correction to E(ZPE) due to population
              of excited vibrational states
    E(rot)  - is the rotational thermal energy
    E(trans)- is the translational thermal energy

Summary of contributions to the inner energy U:
Electronic energy                ...  -1004.44338976 Eh
Zero point energy                ...      0.28600637 Eh     179.47 kcal/mol
Thermal vibrational correction   ...      0.01425573 Eh       8.95 kcal/mol
Thermal rotational correction    ...      0.00141627 Eh       0.89 kcal/mol
Thermal translational correction ...      0.00141627 Eh       0.89 kcal/mol
-----------------------------------------------------------------------
Total thermal energy                  -1004.14029513 Eh


Summary of corrections to the electronic energy:
(perhaps to be used in another calculation)
Total thermal correction                  0.01708827 Eh      10.72 kcal/mol
Non-thermal (ZPE) correction              0.28600637 Eh     179.47 kcal/mol
-----------------------------------------------------------------------
Total correction                          0.30309464 Eh     190.19 kcal/mol


--------
ENTHALPY
--------

The enthalpy is H = U + kB*T
                kB is Boltzmann's constant
Total thermal energy              ...  -1004.14029513 Eh 
Thermal Enthalpy correction       ...      0.00094421 Eh       0.59 kcal/mol
-----------------------------------------------------------------------
Total Enthalpy                    ...  -1004.13935092 Eh


Note: Only C1 symmetry has been detected, increase convergence thresholds 
      if your molecule has a higher symmetry. Symmetry factor of 1.0 is   
      used for the rotational entropy correction. 
 

Note: Rotational entropy computed according to Herzberg 
Infrared and Raman Spectra, Chapter V,1, Van Nostrand Reinhold, 1945 
Point Group:  C1, Symmetry Number:   1  
Rotational constants in cm-1:     0.027776     0.002912     0.002658 

Vibrational entropy computed according to the QRRHO of S. Grimme
Chem.Eur.J. 2012 18 9955 using a reference frequency of 100.0 cm-1


-------
ENTROPY
-------

The entropy contributions are T*S = T*(S(el)+S(vib)+S(rot)+S(trans))
     S(el)   - electronic entropy
     S(vib)  - vibrational entropy
     S(rot)  - rotational entropy
     S(trans)- translational entropy
The entropies will be listed as multiplied by the temperature to get
units of energy

Electronic entropy                ...      0.00000000 Eh      0.00 kcal/mol
Vibrational entropy               ...      0.02388369 Eh     14.99 kcal/mol
Rotational entropy                ...      0.01675875 Eh     10.52 kcal/mol
Translational entropy             ...      0.02047976 Eh     12.85 kcal/mol
-----------------------------------------------------------------------
Final entropy term                ...      0.06112220 Eh     38.35 kcal/mol

In case the symmetry of your molecule has not been determined correctly
or in case you have a reason to use a different symmetry number we print 
out the resulting rotational entropy values for sn=1,12:

 non-linear molecules -----------------------------------
|  sn= 1 | S(rot)=       0.01675875 Eh     10.52 kcal/mol|
|  sn= 2 | S(rot)=       0.01610430 Eh     10.11 kcal/mol|
|  sn= 3 | S(rot)=       0.01572147 Eh      9.87 kcal/mol|
|  sn= 4 | S(rot)=       0.01544984 Eh      9.69 kcal/mol|
|  sn= 5 | S(rot)=       0.01523915 Eh      9.56 kcal/mol|
|  sn= 6 | S(rot)=       0.01506701 Eh      9.45 kcal/mol|
|  sn= 7 | S(rot)=       0.01492146 Eh      9.36 kcal/mol|
|  sn= 8 | S(rot)=       0.01479538 Eh      9.28 kcal/mol|
|  sn= 9 | S(rot)=       0.01468418 Eh      9.21 kcal/mol|
|  sn=10 | S(rot)=       0.01458470 Eh      9.15 kcal/mol|
|  sn=11 | S(rot)=       0.01449471 Eh      9.10 kcal/mol|
|  sn=12 | S(rot)=       0.01441255 Eh      9.04 kcal/mol|
 linear molecules ---------------------------------------
|  Dinfh | S(rot)=       0.01092503 Eh      6.86 kcal/mol|
|  Cinfv | S(rot)=       0.01157949 Eh      7.27 kcal/mol|
 --------------------------------------------------------


-------------------
GIBBS FREE ENERGY
-------------------

The Gibbs free energy is G = H - T*S

Total enthalpy                    ...  -1004.13935092 Eh 
Total entropy correction          ...     -0.06112220 Eh    -38.35 kcal/mol
-----------------------------------------------------------------------
Final Gibbs free energy         ...  -1004.20047312 Eh

For completeness - the Gibbs free energy minus the electronic energy
G-E(el)                           ...      0.24291664 Eh    152.43 kcal/mol


Maximum memory used throughout the entire PROP-calculation: 230.0 MB

--------------------------------
SUGGESTED CITATIONS FOR THIS RUN
--------------------------------

Below you find a list of papers that are relevant to this ORCA run
We neither can nor want to force you to cite these papers, but we appreciate if you do
You receive ORCA, which is the product of decades of hard work by many enthusiastic individuals, for free
The only thing we kindly ask in return is that you cite our papers,
We deeply appreciate it, if you show your appreciation for ORCA by not just citing the generic ORCA reference.

Please note that relegating all ORCA citations to the supporting information does *not* help us.
SI sections are not indexed - citations you put there will not count into any citation statistics
But we need these citations in order to attract the funding resources that allow us to do what we are doing

Therefore, if you are a happy ORCA user, please consider citing a few of the papers listed below in the main body of your paper

In addition to the list printed below, the program has created the file C:\Users\jabreumiranda\Radioprotection_Pipeline_Project\06_Quantum_DFT_ORCA\CHEMBL1683055_neutral_opt.bibtex that contains the list in bibtex format
You can import this file easily into all common literature databanks and citation aid programs

It goes without saying that in many instances, there are alternative algorithms to achieve similar
results as the ones you have gotten from ORCA. It is, of course, also the case that in some instances
ORCA just re-implements algorithms worked out by others. We are fully aware of that and we are also
fully appreciative of our colleagues work. Hence this citation list should not be read as indicating
that the listed papers, which are focused on our own work, are the only ones worth citing. It simply
meant to make it easier for users to cite ORCA specific papers. It is not a substitute for doing your
own literature research and citing the relevant literature in a scientifically appropriate manner.

List of essential papers. We consider these as the minimum necessary citations

  1. Neese, F.
     Software update: the ORCA program system, version 6.0
     WIRES Comput. Molec. Sci. 2025 15(1), e70019
     doi.org/10.1002/wcms.70019

List of papers to cite with high priority. The work reported in these papers was absolutely
necessary for this run to complete.
Our perspective: the developers of density functionals and basis sets usually get cited in chemistry papers
Good! But without the algorithms to do something with them, the functionals or basis sets would not do anything.
Hence, in our opinion, the algorithm design and method developments papers are equally worthy of getting cited

  1. Neese, F.
     An improvement of the resolution of the identity approximation for the formation of the Coulomb matrix
     J. Comp. Chem. 2003 24(14), 1740-1747
     doi.org/10.1002/jcc.10318
  2. Neese, F.; Wennmohs, F.; Hansen, A.; Becker, U.
     Efficient, approximate and parallel Hartree-Fock and hybrid DFT calculations. A 'chain-of-spheres' algorithm for the Hartree-Fock exchange
     Chem. Phys. 2009 356(1-3), 98-109
     doi.org/10.1016/j.chemphys.2008.10.036
  3. Grimme, S.; Antony, J.; Ehrlich, S.; Krieg, H.
     A consistent and accurate ab initio parametrization of density functional dispersion correction (DFT-D) for the 94 elements H-Pu
     J. Chem. Phys. 2010 132 , 154104
     doi.org/10.1063/1.3382344
  4. Grimme, S.; Ehrlich, S.; Goerigk, L.
     Effect of the damping function in dispersion corrected density functional theory
     J. Comput. Chem. 2011 32(7), 1456-1465
     doi.org/10.1002/jcc.21759
  5. Bykov, D.; Petrenko, T.; Izsak, R.; Kossmann, S.; Becker, U.; Valeev, E.; Neese, F.
     Efficient implementation of the analytic second derivatives of Hartree-Fock and hybrid DFT energies: a detailed analysis of different approximations
     Molec. Phys. 2015 113 , 1961-1977
     doi.org/10.1080/00268976.2015.1025114
  6. Garcia-Rates, M.; Neese, F.
     Efficient implementation of the analytical second derivatives of hartree-fock and hybrid DFT energies within the framework of the conductor-like polarizable continuum model
     J. Comput. Chem. 2019 40 , 1816-1828
     doi.org/10.1002/jcc.25833
  7. Garcia-Rates, M.; Neese, F.
     Effect of the Solute Cavity on the Solvation Energy and its Derivatives within the Framework of the Gaussian Charge Scheme
     J. Comput. Chem. 2020 41 , 922-939
     doi.org/10.1002/jcc.26139
  8. Helmich-Paris, B.; de Souza, B.; Neese, F.; Izsák, R.
     An improved chain of spheres for exchange algorithm
     J. Chem. Phys. 2021 155(10), 104109
     doi.org/10.1063/5.0058766
  9. Neese, F.
     The SHARK Integral Generation and Digestion System
     J. Comp. Chem. 2022 44(3), 381
     doi.org/10.1002/jcc.26942

List of suggested additional citations. These are papers that are important in the 'surrounding' of 
of this run, or papers that preceded the highly important papers. If you like your results we are grateful for a citation.

  1. Izsak, R.; Neese, F.
     An overlap fitted chain of spheres exchange method
     J. Chem. Phys. 2011 135 , 144105
     doi.org/10.1063/1.3646921
  2. Izsak, R.; Hansen, A.; Neese, F.
     The resolution of identity and chain of spheres approximations for the LPNO-CCSD singles Fock term
     Molec. Phys. 2012 110 , 2413-2417
     doi.org/10.1080/00268976.2012.687466
  3. Neese, F.
     The ORCA program system
     WIRES Comput. Molec. Sci. 2012 2(1), 73-78
     doi.org/10.1002/wcms.81
  4. Izsak, R.; Neese, F.; Klopper, W.
     Robust fitting techniques in the chain of spheres approximation to the Fock exchange: The role of the complementary space
     J. Chem. Phys. 2013 139 , 
     doi.org/10.1063/1.4819264
  5. Neese, F.
     Software update: the ORCA program system, version 4.0
     WIRES Comput. Molec. Sci. 2018 8(1), 1-6
     doi.org/10.1002/wcms.1327
  6. Neese, F.; Wennmohs, F.; Becker, U.; Riplinger, C.
     The ORCA quantum chemistry program package
     J. Chem. Phys. 2020 152(22), 224108
     doi.org/10.1063/5.0004608
  7. Neese, F.
     Software update: The ORCA program system—Version 5.0
     WIRES Comput. Molec. Sci. 2022 12(1), e1606
     doi.org/10.1002/wcms.1606

List of optional additional citations

  1. Neese, F.
     Approximate second-order SCF convergence for spin unrestricted wavefunctions
     Chem. Phys. Lett. 2000 325(1-3), 93-98
     doi.org/10.1016/s0009-2614(00)00662-x

Timings for individual modules:

Sum of individual times          ...     7943.073 sec (= 132.385 min)
Startup calculation              ...       81.628 sec (=   1.360 min)   1.0 %
SCF iterations                   ...     2401.756 sec (=  40.029 min)  30.2 %
Property integrals               ...      866.217 sec (=  14.437 min)  10.9 %
SCF Response                     ...     1270.935 sec (=  21.182 min)  16.0 %
Property calculations            ...     1785.965 sec (=  29.766 min)  22.5 %
SCF Gradient evaluation          ...     1536.107 sec (=  25.602 min)  19.3 %
Geometry relaxation              ...        0.465 sec (=   0.008 min)   0.0 %
                             ****ORCA TERMINATED NORMALLY****
TOTAL RUN TIME: 0 days 2 hours 12 minutes 36 seconds 854 msec
