37
Coordinates from ORCA-job C:\Users\jabreumiranda\Radioprotection_Pipeline_Project\06_Quantum_DFT_ORCA\CHEMBL1683055_neutral_opt E -1004.426131633131
  N       7.111200     -1.668200     -1.012900
  C       6.016700     -0.932100     -0.775100
  N       5.923300      0.372200     -0.776900
  C       4.609200      0.641600     -0.480800
  C       3.951000      1.870500     -0.352400
  C       2.583200      1.871500     -0.035900
  C       1.861500      0.677300      0.154400
  C       0.427400      0.715300      0.489300
  C      -0.043800      1.457800      1.577000
  C      -1.407000      1.481000      1.884300
  C      -2.329100      0.774100      1.126700
  N      -3.632800      0.819900      1.454000
  C      -4.487800      0.118300      0.688100
  C      -5.846100      0.133400      0.982900
  C      -6.765300     -0.580800      0.213000
  C      -6.318300     -1.323700     -0.871500
  C      -4.956300     -1.345500     -1.175500
  C      -4.033000     -0.637700     -0.414900
  N      -2.728000     -0.684100     -0.739800
  C      -1.873500      0.019300      0.025400
  C      -0.514700      0.004000     -0.271600
  C       2.528000     -0.558500      0.022200
  C       3.889900     -0.532400     -0.294100
  N       4.818400     -1.523400     -0.484600
  H       7.891100     -1.134900     -1.390900
  H       7.022600     -2.572900     -1.460800
  H       4.494700      2.797300     -0.497700
  H       2.078100      2.832400      0.050800
  H       0.647600      2.017300      2.204800
  H      -1.756400      2.060900      2.735100
  H      -6.193600      0.716300      1.832500
  H      -7.823000     -0.553400      0.462600
  H      -7.021900     -1.884900     -1.481200
  H      -4.603900     -1.926100     -2.024600
  H      -0.188800     -0.575000     -1.133900
  H       2.007400     -1.499300      0.172700
  H       4.662000     -2.514600     -0.400600
37
Coordinates from ORCA-job C:\Users\jabreumiranda\Radioprotection_Pipeline_Project\06_Quantum_DFT_ORCA\CHEMBL1683055_neutral_opt E -1004.439384452269
  N       7.127856     -1.685101     -1.037622
  C       6.013401     -0.948526     -0.801498
  N       5.940950      0.371575     -0.754896
  C       4.621797      0.653545     -0.451448
  C       3.973464      1.885091     -0.273877
  C       2.608233      1.881177      0.031072
  C       1.872038      0.680397      0.159325
  C       0.427384      0.722574      0.478620
  C      -0.056979      1.508131      1.562465
  C      -1.404324      1.548154      1.874718
  C      -2.343646      0.807030      1.122582
  N      -3.648755      0.858637      1.443000
  C      -4.499125      0.135329      0.690730
  C      -5.882971      0.153177      0.981710
  C      -6.776333     -0.582943      0.221151
  C      -6.314132     -1.366512     -0.862313
  C      -4.964554     -1.404444     -1.171754
  C      -4.027563     -0.663967     -0.414148
  N      -2.720775     -0.716562     -0.732083
  C      -1.870974      0.006819      0.020463
  C      -0.488741     -0.009923     -0.272674
  C       2.517821     -0.559455     -0.018099
  C       3.878858     -0.542561     -0.320401
  N       4.799577     -1.550385     -0.544307
  H       7.919981     -1.149306     -1.382325
  H       7.035861     -2.585227     -1.500135
  H       4.526986      2.820937     -0.376069
  H       2.101746      2.841116      0.159198
  H       0.641519      2.084746      2.172740
  H      -1.755080      2.152299      2.713808
  H      -6.239207      0.758408      1.818100
  H      -7.841108     -0.554831      0.462913
  H      -7.020777     -1.945877     -1.460678
  H      -4.607820     -2.009144     -2.008285
  H      -0.148996     -0.611026     -1.118524
  H       1.974877     -1.500353      0.088359
  H       4.629514     -2.550101     -0.499716
37
Coordinates from ORCA-job C:\Users\jabreumiranda\Radioprotection_Pipeline_Project\06_Quantum_DFT_ORCA\CHEMBL1683055_neutral_opt E -1004.442338081361
  N       7.109354     -1.702518     -1.086725
  C       5.994014     -0.963791     -0.835427
  N       5.957443      0.353074     -0.687861
  C       4.637794      0.646121     -0.384218
  C       4.012301      1.873379     -0.118156
  C       2.644372      1.875412      0.164115
  C       1.878717      0.684447      0.178043
  C       0.424832      0.737882      0.466447
  C      -0.075778      1.587933      1.510388
  C      -1.413230      1.646658      1.812122
  C      -2.355932      0.857393      1.086816
  N      -3.659871      0.919549      1.390280
  C      -4.501039      0.157594      0.672455
  C      -5.900328      0.184303      0.952246
  C      -6.771183     -0.591551      0.223004
  C      -6.292874     -1.435226     -0.824079
  C      -4.951912     -1.489989     -1.125428
  C      -4.013748     -0.701551     -0.393217
  N      -2.707402     -0.764510     -0.694584
  C      -1.866548     -0.004459      0.025033
  C      -0.469888     -0.031896     -0.255105
  C       2.496967     -0.552954     -0.087784
  C       3.860783     -0.547499     -0.362116
  N       4.763296     -1.559317     -0.650623
  H       7.919089     -1.163676     -1.379636
  H       7.001386     -2.576582     -1.593587
  H       4.586033      2.803416     -0.135644
  H       2.149149      2.829285      0.363464
  H       0.625339      2.193039      2.090099
  H      -1.776248      2.290444      2.616330
  H      -6.261023      0.831987      1.754583
  H      -7.839855     -0.559691      0.449954
  H      -6.997703     -2.045742     -1.394369
  H      -4.581448     -2.134396     -1.925931
  H      -0.121135     -0.675182     -1.065401
  H       1.926408     -1.483918     -0.065611
  H       4.569867     -2.554570     -0.689777
37
Coordinates from ORCA-job C:\Users\jabreumiranda\Radioprotection_Pipeline_Project\06_Quantum_DFT_ORCA\CHEMBL1683055_neutral_opt E -1004.443038620647
  N       7.097859     -1.707363     -1.130110
  C       5.986898     -0.968315     -0.859040
  N       5.972611      0.335800     -0.623113
  C       4.653154      0.633667     -0.324057
  C       4.043495      1.849493      0.016518
  C       2.671570      1.857446      0.277233
  C       1.883061      0.683458      0.194021
  C       0.424736      0.744561      0.458852
  C      -0.088026      1.647365      1.458443
  C      -1.424166      1.720397      1.746971
  C      -2.364633      0.894480      1.050907
  N      -3.668922      0.968453      1.338334
  C      -4.505341      0.175226      0.652262
  C      -5.910942      0.214602      0.920056
  C      -6.772518     -0.593258      0.220467
  C      -6.284452     -1.486060     -0.785269
  C      -4.944311     -1.555620     -1.073850
  C      -4.009061     -0.731821     -0.368645
  N      -2.701523     -0.806722     -0.653856
  C      -1.865203     -0.016589      0.035147
  C      -0.462867     -0.058217     -0.231458
  C       2.486036     -0.543572     -0.150543
  C       3.853366     -0.545226     -0.398424
  N       4.744395     -1.551333     -0.739092
  H       7.919362     -1.167264     -1.384479
  H       6.977731     -2.557641     -1.673368
  H       4.632392      2.768306      0.072796
  H       2.186845      2.802925      0.531470
  H       0.613295      2.274274      2.013296
  H      -1.800006      2.398416      2.516369
  H      -6.271241      0.900692      1.689855
  H      -7.843897     -0.555101      0.433253
  H      -6.988644     -2.120348     -1.329877
  H      -4.560690     -2.233672     -1.839467
  H      -0.114138     -0.737644     -1.011167
  H       1.900038     -1.463431     -0.198041
  H       4.533737     -2.537462     -0.852294
37
Coordinates from ORCA-job C:\Users\jabreumiranda\Radioprotection_Pipeline_Project\06_Quantum_DFT_ORCA\CHEMBL1683055_neutral_opt E -1004.443267382867
  N       7.092657     -1.703567     -1.165415
  C       5.985961     -0.966858     -0.875816
  N       5.981351      0.326852     -0.588625
  C       4.662970      0.625211     -0.290760
  C       4.060558      1.831030      0.092706
  C       2.686722      1.841733      0.342734
  C       1.885749      0.679940      0.209503
  C       0.426017      0.743581      0.462424
  C      -0.095780      1.676751      1.431438
  C      -1.433477      1.759312      1.707950
  C      -2.370503      0.913629      1.030821
  N      -3.676028      0.997815      1.305027
  C      -4.509705      0.186347      0.637314
  C      -5.917225      0.237149      0.893099
  C      -6.775510     -0.588874      0.210833
  C      -6.281389     -1.511864     -0.764082
  C      -4.939019     -1.592727     -1.039018
  C      -4.007806     -0.750138     -0.350264
  N      -2.698283     -0.835601     -0.621566
  C      -1.864740     -0.027397      0.049258
  C      -0.461275     -0.079858     -0.205947
  C       2.484801     -0.537964     -0.178845
  C       3.852960     -0.541792     -0.416369
  N       4.738182     -1.541184     -0.789477
  H       7.917600     -1.163087     -1.407037
  H       6.964376     -2.544251     -1.721232
  H       4.656194      2.741912      0.189051
  H       2.209392      2.782386      0.623892
  H       0.603374      2.315770      1.973531
  H      -1.819140      2.458844      2.452759
  H      -6.276233      0.948361      1.640274
  H      -7.848973     -0.544832      0.410818
  H      -6.985490     -2.158569     -1.293715
  H      -4.545104     -2.291817     -1.779985
  H      -0.116945     -0.781911     -0.966833
  H       1.895015     -1.452153     -0.262094
  H       4.518745     -2.519282     -0.946252
37
Coordinates from ORCA-job C:\Users\jabreumiranda\Radioprotection_Pipeline_Project\06_Quantum_DFT_ORCA\CHEMBL1683055_neutral_opt E -1004.443347359638
  N       7.084413     -1.702804     -1.194133
  C       5.982646     -0.967315     -0.888391
  N       5.985053      0.319944     -0.571852
  C       4.668559      0.619824     -0.272580
  C       4.071498      1.820312      0.134559
  C       2.696958      1.834355      0.379825
  C       1.886954      0.681189      0.222485
  C       0.427665      0.745759      0.470966
  C      -0.101666      1.693225      1.422610
  C      -1.441305      1.781220      1.688798
  C      -2.374514      0.925651      1.021101
  N      -3.681664      1.016635      1.284654
  C      -4.511779      0.193067      0.626282
  C      -5.919811      0.250929      0.870889
  C      -6.775034     -0.587095      0.198341
  C      -6.275094     -1.528707     -0.754246
  C      -4.930157     -1.616172     -1.016942
  C      -4.004100     -0.761833     -0.337807
  N      -2.692496     -0.853964     -0.598127
  C      -1.862784     -0.032796      0.062400
  C      -0.459543     -0.090260     -0.183932
  C       2.483180     -0.531202     -0.190792
  C       3.851125     -0.537962     -0.425373
  N       4.731045     -1.534472     -0.818162
  H       7.910386     -1.164024     -1.435662
  H       6.949630     -2.542987     -1.748734
  H       4.671606      2.725569      0.252563
  H       2.227725      2.774122      0.675746
  H       0.593444      2.339701      1.960301
  H      -1.834150      2.492830      2.418238
  H      -6.279592      0.977999      1.602246
  H      -7.850208     -0.539796      0.387585
  H      -6.977947     -2.183388     -1.275481
  H      -4.527879     -2.328519     -1.740565
  H      -0.118387     -0.807857     -0.931571
  H       1.891416     -1.441773     -0.294669
  H       4.504804     -2.506506     -1.000472
37
Coordinates from ORCA-job C:\Users\jabreumiranda\Radioprotection_Pipeline_Project\06_Quantum_DFT_ORCA\CHEMBL1683055_neutral_opt E -1004.443367399737
  N       7.082433     -1.701138     -1.202421
  C       5.982083     -0.966847     -0.891757
  N       5.985576      0.319643     -0.570202
  C       4.669674      0.619515     -0.270446
  C       4.072979      1.819071      0.140635
  C       2.698539      1.832986      0.385988
  C       1.886694      0.681588      0.225093
  C       0.428324      0.745406      0.474908
  C      -0.103092      1.695037      1.422994
  C      -1.443220      1.784086      1.686956
  C      -2.375687      0.927407      1.020809
  N      -3.683443      1.020782      1.281514
  C      -4.512328      0.194690      0.623865
  C      -5.920241      0.254706      0.864713
  C      -6.774669     -0.585692      0.193597
  C      -6.273127     -1.531464     -0.753415
  C      -4.927350     -1.620891     -1.012310
  C      -4.002893     -0.764413     -0.334911
  N      -2.690557     -0.858715     -0.592435
  C      -1.862258     -0.034462      0.066739
  C      -0.459375     -0.092611     -0.177440
  C       2.483235     -0.529722     -0.191766
  C       3.850863     -0.536702     -0.426905
  N       4.729675     -1.532966     -0.823397
  H       7.908009     -1.163948     -1.448484
  H       6.947169     -2.547089     -1.747718
  H       4.673211      2.723762      0.262252
  H       2.232387      2.773397      0.685143
  H       0.589961      2.343523      1.961132
  H      -1.837161      2.497888      2.413669
  H      -6.280539      0.985339      1.592270
  H      -7.850376     -0.537366      0.379525
  H      -6.975647     -2.187556     -1.273326
  H      -4.523007     -2.336292     -1.731773
  H      -0.120150     -0.814016     -0.922315
  H       1.892367     -1.440432     -0.299510
  H       4.501943     -2.503600     -1.011169
37
Coordinates from ORCA-job C:\Users\jabreumiranda\Radioprotection_Pipeline_Project\06_Quantum_DFT_ORCA\CHEMBL1683055_neutral_opt E -1004.443378464492
  N       7.081496     -1.699781     -1.205174
  C       5.981861     -0.966519     -0.892644
  N       5.985433      0.320563     -0.571623
  C       4.669788      0.620474     -0.271867
  C       4.072495      1.820250      0.138637
  C       2.698186      1.833519      0.384699
  C       1.886250      0.682192      0.225194
  C       0.428619      0.745788      0.476255
  C      -0.103310      1.694019      1.425000
  C      -1.443501      1.782789      1.689147
  C      -2.376172      0.927081      1.022432
  N      -3.684124      1.020933      1.282937
  C      -4.512359      0.194724      0.623964
  C      -5.920134      0.254855      0.863761
  C      -6.774228     -0.585553      0.192024
  C      -6.272176     -1.531285     -0.754554
  C      -4.926165     -1.620794     -1.012660
  C      -4.002224     -0.764457     -0.334927
  N      -2.689628     -0.859064     -0.592378
  C      -1.862109     -0.034384      0.067762
  C      -0.459404     -0.091727     -0.176404
  C       2.483322     -0.529132     -0.190772
  C       3.850694     -0.535905     -0.426925
  N       4.729252     -1.532758     -0.823236
  H       7.907121     -1.165202     -1.456197
  H       6.947713     -2.554532     -1.736571
  H       4.671876      2.725614      0.259570
  H       2.233906      2.774980      0.684051
  H       0.588162      2.342998      1.964869
  H      -1.836674      2.496052      2.416820
  H      -6.281031      0.985424      1.591096
  H      -7.850087     -0.537224      0.377223
  H      -6.974476     -2.187336     -1.274864
  H      -4.521589     -2.336286     -1.731923
  H      -0.121587     -0.813610     -0.921551
  H       1.893793     -1.440798     -0.298673
  H       4.501011     -2.503011     -1.012401
37
Coordinates from ORCA-job C:\Users\jabreumiranda\Radioprotection_Pipeline_Project\06_Quantum_DFT_ORCA\CHEMBL1683055_neutral_opt E -1004.443383120158
  N       7.081547     -1.698430     -1.205408
  C       5.982089     -0.966059     -0.892488
  N       5.985350      0.321528     -0.572656
  C       4.669629      0.621355     -0.273260
  C       4.071649      1.821299      0.136150
  C       2.697325      1.833923      0.382576
  C       1.886070      0.682123      0.224402
  C       0.428563      0.745908      0.475694
  C      -0.102906      1.692820      1.425732
  C      -1.442980      1.781232      1.690768
  C      -2.376201      0.926458      1.023350
  N      -3.684045      1.019865      1.284677
  C      -4.512304      0.194351      0.624779
  C      -5.920087      0.253820      0.865231
  C      -6.774261     -0.585918      0.192826
  C      -6.272451     -1.530437     -0.755211
  C      -4.926600     -1.619335     -1.014186
  C      -4.002347     -0.763632     -0.335890
  N      -2.689862     -0.857672     -0.594345
  C      -1.862337     -0.033717      0.066722
  C      -0.459528     -0.090478     -0.178105
  C       2.483479     -0.529368     -0.190165
  C       3.850795     -0.535638     -0.426751
  N       4.729623     -1.532750     -0.822168
  H       7.908021     -1.166175     -1.458030
  H       6.949762     -2.559972     -1.725924
  H       4.670207      2.727369      0.255995
  H       2.233356      2.775740      0.681533
  H       0.588019      2.341851      1.966358
  H      -1.834892      2.493732      2.419875
  H      -6.281329      0.983235      1.593560
  H      -7.850013     -0.537820      0.378795
  H      -6.974663     -2.186173     -1.276073
  H      -4.522771     -2.334050     -1.734647
  H      -0.122146     -0.811429     -0.924396
  H       1.894824     -1.441753     -0.297295
  H       4.501414     -2.502905     -1.011926
37
Coordinates from ORCA-job C:\Users\jabreumiranda\Radioprotection_Pipeline_Project\06_Quantum_DFT_ORCA\CHEMBL1683055_neutral_opt E -1004.443387564964
  N       7.081377     -1.697478     -1.205473
  C       5.982177     -0.965784     -0.892234
  N       5.985247      0.322119     -0.573396
  C       4.669415      0.621979     -0.274259
  C       4.071138      1.822054      0.134272
  C       2.696728      1.834484      0.380862
  C       1.886117      0.682215      0.223658
  C       0.428350      0.746370      0.474612
  C      -0.102481      1.692228      1.425922
  C      -1.442453      1.780193      1.691782
  C      -2.376019      0.925967      1.023774
  N      -3.683673      1.018427      1.286064
  C      -4.512166      0.193725      0.625674
  C      -5.920006      0.252222      0.867278
  C      -6.774348     -0.586793      0.194316
  C      -6.272919     -1.529776     -0.755624
  C      -4.927308     -1.617746     -1.015862
  C      -4.002617     -0.762688     -0.336968
  N      -2.690350     -0.855780     -0.596469
  C      -1.862545     -0.032819      0.065256
  C      -0.459568     -0.089113     -0.180321
  C       2.483460     -0.529505     -0.189958
  C       3.850804     -0.535455     -0.426671
  N       4.729868     -1.532715     -0.821237
  H       7.909485     -1.167619     -1.457187
  H       6.951493     -2.564610     -1.716806
  H       4.669267      2.728538      0.253189
  H       2.232416      2.776312      0.679172
  H       0.588395      2.341038      1.966832
  H      -1.833297      2.492060      2.422073
  H      -6.281550      0.980228      1.596865
  H      -7.849907     -0.539032      0.381507
  H      -6.974969     -2.185234     -1.277063
  H      -4.524392     -2.331453     -1.737831
  H      -0.121849     -0.808774     -0.927702
  H       1.895048     -1.442165     -0.296217
  H       4.501632     -2.502719     -1.011729
37
Coordinates from ORCA-job C:\Users\jabreumiranda\Radioprotection_Pipeline_Project\06_Quantum_DFT_ORCA\CHEMBL1683055_neutral_opt E -1004.443390358420
  N       7.081119     -1.696869     -1.206009
  C       5.982218     -0.965595     -0.892226
  N       5.985217      0.322296     -0.573372
  C       4.669289      0.622148     -0.274448
  C       4.071073      1.822179      0.134008
  C       2.696582      1.834756      0.380486
  C       1.886209      0.682346      0.223183
  C       0.428153      0.746593      0.473854
  C      -0.102308      1.692288      1.425568
  C      -1.442250      1.780053      1.691715
  C      -2.375806      0.925824      1.023590
  N      -3.683342      1.017663      1.286362
  C      -4.512099      0.193350      0.626079
  C      -5.919942      0.251316      0.868484
  C      -6.774459     -0.587374      0.195398
  C      -6.273317     -1.529578     -0.755532
  C      -4.927838     -1.617033     -1.016519
  C      -4.002899     -0.762261     -0.337420
  N      -2.690777     -0.854810     -0.597372
  C      -1.862648     -0.032394      0.064407
  C      -0.459611     -0.088649     -0.181519
  C       2.483388     -0.529488     -0.190336
  C       3.850779     -0.535356     -0.426894
  N       4.729958     -1.532549     -0.821232
  H       7.910927     -1.168567     -1.454941
  H       6.952388     -2.566781     -1.712671
  H       4.669267      2.728625      0.252906
  H       2.231691      2.776310      0.678606
  H       0.588893      2.340875      1.966254
  H      -1.832759      2.491800      2.422299
  H      -6.281558      0.978630      1.598724
  H      -7.849878     -0.539762      0.383392
  H      -6.975264     -2.184944     -1.277209
  H      -4.525435     -2.330237     -1.739267
  H      -0.121283     -0.807591     -0.929284
  H       1.894710     -1.441989     -0.296263
  H       4.501613     -2.502325     -1.012700
37
Coordinates from ORCA-job C:\Users\jabreumiranda\Radioprotection_Pipeline_Project\06_Quantum_DFT_ORCA\CHEMBL1683055_neutral_opt E -1004.443393000351
  N       7.080703     -1.696636     -1.206832
  C       5.982134     -0.965547     -0.892432
  N       5.985159      0.322255     -0.573226
  C       4.669210      0.622096     -0.274349
  C       4.071231      1.822083      0.134355
  C       2.696708      1.834959      0.380672
  C       1.886239      0.682632      0.222988
  C       0.428050      0.746787      0.473546
  C      -0.102352      1.692590      1.425285
  C      -1.442300      1.780256      1.691406
  C      -2.375657      0.925850      1.023322
  N      -3.683168      1.017442      1.286199
  C      -4.512061      0.193174      0.626156
  C      -5.919856      0.250986      0.868875
  C      -6.774458     -0.587675      0.195841
  C      -6.273424     -1.529663     -0.755329
  C      -4.927964     -1.616956     -1.016540
  C      -4.003005     -0.762232     -0.337439
  N      -2.690927     -0.854604     -0.597424
  C      -1.862623     -0.032297      0.064191
  C      -0.459640     -0.088596     -0.181813
  C       2.483258     -0.529253     -0.190842
  C       3.850658     -0.535261     -0.427254
  N       4.729814     -1.532402     -0.821651
  H       7.911959     -1.169249     -1.452548
  H       6.952563     -2.567598     -1.711693
  H       4.669731      2.728287      0.253537
  H       2.231387      2.776262      0.678796
  H       0.589232      2.340925      1.965730
  H      -1.832995      2.492005      2.421884
  H      -6.281418      0.978147      1.599290
  H      -7.849823     -0.540119      0.384123
  H      -6.975331     -2.185026     -1.277047
  H      -4.525655     -2.330017     -1.739478
  H      -0.120781     -0.807311     -0.929527
  H       1.894114     -1.441423     -0.296783
  H       4.501291     -2.501974     -1.013889
37
Coordinates from ORCA-job C:\Users\jabreumiranda\Radioprotection_Pipeline_Project\06_Quantum_DFT_ORCA\CHEMBL1683055_neutral_opt E -1004.443389761184
  N       7.080433     -1.696409     -1.207762
  C       5.982065     -0.965454     -0.892825
  N       5.985069      0.322301     -0.573336
  C       4.669146      0.622031     -0.274322
  C       4.071294      1.821974      0.134641
  C       2.696809      1.834951      0.381001
  C       1.886211      0.682704      0.223133
  C       0.428063      0.746671      0.473765
  C      -0.102459      1.692692      1.425309
  C      -1.442423      1.780419      1.691245
  C      -2.375625      0.925861      1.023251
  N      -3.683174      1.017618      1.285945
  C      -4.512080      0.193244      0.626031
  C      -5.919844      0.251261      0.868575
  C      -6.774446     -0.587494      0.195620
  C      -6.273379     -1.529727     -0.755236
  C      -4.927871     -1.617221     -1.016228
  C      -4.002989     -0.762433     -0.337206
  N      -2.690875     -0.854986     -0.596970
  C      -1.862558     -0.032536      0.064494
  C      -0.459646     -0.088926     -0.181389
  C       2.483236     -0.529165     -0.190966
  C       3.850588     -0.535252     -0.427470
  N       4.729716     -1.532330     -0.822055
  H       7.912498     -1.169295     -1.451194
  H       6.952561     -2.567449     -1.712490
  H       4.670001      2.728019      0.253977
  H       2.231290      2.776124      0.679229
  H       0.589363      2.340920      1.965580
  H      -1.833472      2.492243      2.421457
  H      -6.281313      0.978661      1.598797
  H      -7.849838     -0.539849      0.383718
  H      -6.975319     -2.185102     -1.276895
  H      -4.525409     -2.330442     -1.738921
  H      -0.120572     -0.807751     -0.928892
  H       1.893823     -1.441144     -0.296963
  H       4.501126     -2.501828     -1.014550
