16
Coordinates from ORCA-job C:\Users\jabreumiranda\Radioprotection_Pipeline_Project\06_Quantum_DFT_ORCA\REF_AMIFOSTINE_neutral_opt E -1100.323372516915
  N       3.169600     -0.529000      0.200900
  C       2.130800      0.479700     -0.018200
  C       0.731300     -0.136600     -0.064400
  S      -0.529200      1.137800     -0.340400
  P      -2.284000      0.052100     -0.283100
  O      -2.263700     -1.139400     -1.181100
  O      -2.632600     -0.346600      1.228300
  O      -3.509600      1.040900     -0.578500
  H       2.987700     -1.033400      1.067900
  H       3.139900     -1.223600     -0.545300
  H       2.352000      0.999500     -0.957400
  H       2.196900      1.218700      0.788400
  H       0.664700     -0.872900     -0.872300
  H       0.507400     -0.648100      0.877700
  H      -3.382100     -0.971500      1.240300
  H      -3.278900      1.972600     -0.408400
16
Coordinates from ORCA-job C:\Users\jabreumiranda\Radioprotection_Pipeline_Project\06_Quantum_DFT_ORCA\REF_AMIFOSTINE_neutral_opt E -1100.328865865207
  N       3.157969     -0.535559      0.174645
  C       2.114928      0.472029      0.002079
  C       0.710734     -0.137950     -0.050318
  S      -0.542435      1.176645     -0.285185
  P      -2.276567      0.045317     -0.275696
  O      -2.204363     -1.161412     -1.152136
  O      -2.605447     -0.317936      1.261779
  O      -3.479689      1.042710     -0.672959
  H       2.986633     -1.069715      1.028766
  H       3.117523     -1.209614     -0.592398
  H       2.317689      1.029348     -0.927294
  H       2.181369      1.192176      0.834041
  H       0.630937     -0.851272     -0.884341
  H       0.490841     -0.672959      0.885771
  H      -3.316599     -0.981893      1.304168
  H      -3.283323      1.980283     -0.496523
16
Coordinates from ORCA-job C:\Users\jabreumiranda\Radioprotection_Pipeline_Project\06_Quantum_DFT_ORCA\REF_AMIFOSTINE_neutral_opt E -1100.331516114078
  N       3.144473     -0.546022      0.162223
  C       2.101054      0.460032      0.020627
  C       0.689321     -0.134910     -0.043663
  S      -0.550378      1.222805     -0.250515
  P      -2.263926      0.038739     -0.288040
  O      -2.167735     -1.182299     -1.141085
  O      -2.555993     -0.278438      1.278118
  O      -3.445924      1.038175     -0.764197
  H       2.975769     -1.102459      1.003154
  H       3.096521     -1.204551     -0.618353
  H       2.291179      1.047322     -0.895200
  H       2.162337      1.164118      0.869028
  H       0.593163     -0.823852     -0.896341
  H       0.462282     -0.683033      0.884130
  H      -3.216736     -0.989990      1.369550
  H      -3.315208      1.974564     -0.535038
16
Coordinates from ORCA-job C:\Users\jabreumiranda\Radioprotection_Pipeline_Project\06_Quantum_DFT_ORCA\REF_AMIFOSTINE_neutral_opt E -1100.332350179864
  N       3.139986     -0.554132      0.175347
  C       2.101032      0.452506      0.017465
  C       0.684016     -0.131150     -0.040012
  S      -0.547280      1.241684     -0.265201
  P      -2.261656      0.043557     -0.318287
  O      -2.186512     -1.172566     -1.177751
  O      -2.516576     -0.269717      1.258207
  O      -3.436820      1.051244     -0.794044
  H       2.968533     -1.096533      1.025095
  H       3.087807     -1.226841     -0.593021
  H       2.291161      1.027562     -0.906221
  H       2.161587      1.170672      0.854117
  H       0.576806     -0.826716     -0.885207
  H       0.448515     -0.662286      0.895302
  H      -3.138837     -1.011649      1.374123
  H      -3.371559      1.964564     -0.465514
16
Coordinates from ORCA-job C:\Users\jabreumiranda\Radioprotection_Pipeline_Project\06_Quantum_DFT_ORCA\REF_AMIFOSTINE_neutral_opt E -1100.333145947894
  N       3.136146     -0.568375      0.198467
  C       2.109201      0.443398      0.002550
  C       0.684037     -0.120938     -0.026458
  S      -0.534628      1.260972     -0.300056
  P      -2.259403      0.060884     -0.366921
  O      -2.229025     -1.135858     -1.251775
  O      -2.470170     -0.272066      1.212456
  O      -3.427973      1.083699     -0.813551
  H       2.962320     -1.071955      1.071293
  H       3.070512     -1.273740     -0.539049
  H       2.301152      0.978707     -0.943810
  H       2.180665      1.195020      0.807774
  H       0.557552     -0.843001     -0.845763
  H       0.439412     -0.609452      0.928938
  H      -3.044375     -1.049318      1.342072
  H      -3.475222      1.922223     -0.321765
16
Coordinates from ORCA-job C:\Users\jabreumiranda\Radioprotection_Pipeline_Project\06_Quantum_DFT_ORCA\REF_AMIFOSTINE_neutral_opt E -1100.333558138787
  N       3.133343     -0.580885      0.210546
  C       2.119345      0.438913     -0.015006
  C       0.687798     -0.107175     -0.007898
  S      -0.522556      1.271199     -0.322150
  P      -2.254842      0.078791     -0.397234
  O      -2.249621     -1.096581     -1.309260
  O      -2.455045     -0.284659      1.174118
  O      -3.420939      1.112070     -0.810216
  H       2.961753     -1.046767      1.104358
  H       3.049125     -1.313463     -0.497845
  H       2.310716      0.933170     -0.982944
  H       2.211352      1.218942      0.759959
  H       0.544197     -0.857063     -0.798957
  H       0.443977     -0.556875      0.966133
  H      -3.008779     -1.078176      1.292814
  H      -3.549625      1.868760     -0.212018
16
Coordinates from ORCA-job C:\Users\jabreumiranda\Radioprotection_Pipeline_Project\06_Quantum_DFT_ORCA\REF_AMIFOSTINE_neutral_opt E -1100.333787210633
  N       3.130344     -0.587501      0.219681
  C       2.125906      0.436273     -0.036335
  C       0.690353     -0.094717      0.011935
  S      -0.515190      1.272868     -0.338776
  P      -2.251223      0.093466     -0.418049
  O      -2.256934     -1.056268     -1.362937
  O      -2.454396     -0.311605      1.139010
  O      -3.417445      1.139480     -0.785928
  H       2.964787     -1.012826      1.134435
  H       3.028223     -1.347112     -0.456909
  H       2.313272      0.885511     -1.026346
  H       2.240022      1.245234      0.705040
  H       0.533033     -0.874522     -0.747361
  H       0.455891     -0.507006      1.004470
  H      -3.004483     -1.110945      1.232613
  H      -3.581961      1.829871     -0.120143
16
Coordinates from ORCA-job C:\Users\jabreumiranda\Radioprotection_Pipeline_Project\06_Quantum_DFT_ORCA\REF_AMIFOSTINE_neutral_opt E -1100.333870302364
  N       3.129256     -0.588742      0.220256
  C       2.126433      0.433665     -0.049450
  C       0.689479     -0.089730      0.028303
  S      -0.513789      1.272637     -0.338387
  P      -2.249023      0.100807     -0.427609
  O      -2.250494     -1.033090     -1.392654
  O      -2.460934     -0.328976      1.120236
  O      -3.411901      1.158317     -0.773885
  H       2.971817     -0.990919      1.146780
  H       3.016472     -1.363491     -0.437139
  H       2.305280      0.856966     -1.052435
  H       2.254244      1.259686      0.670799
  H       0.523166     -0.886791     -0.711383
  H       0.466619     -0.480751      1.032168
  H      -3.006616     -1.133249      1.195770
  H      -3.589809      1.813861     -0.076969
16
Coordinates from ORCA-job C:\Users\jabreumiranda\Radioprotection_Pipeline_Project\06_Quantum_DFT_ORCA\REF_AMIFOSTINE_neutral_opt E -1100.333901947455
  N       3.129020     -0.589150      0.218724
  C       2.125384      0.430443     -0.058017
  C       0.687569     -0.087755      0.041503
  S      -0.513599      1.273882     -0.332554
  P      -2.247459      0.106286     -0.434081
  O      -2.242494     -1.017076     -1.412061
  O      -2.466708     -0.338145      1.108688
  O      -3.404509      1.175204     -0.771114
  H       2.978822     -0.976641      1.152715
  H       3.009309     -1.373777     -0.425643
  H       2.295183      0.837309     -1.069486
  H       2.261905      1.268010      0.647446
  H       0.513769     -0.895153     -0.685417
  H       0.474846     -0.465066      1.052920
  H      -3.002507     -1.149990      1.173008
  H      -3.598329      1.801819     -0.052232
16
Coordinates from ORCA-job C:\Users\jabreumiranda\Radioprotection_Pipeline_Project\06_Quantum_DFT_ORCA\REF_AMIFOSTINE_neutral_opt E -1100.333930413186
  N       3.130276     -0.588355      0.216000
  C       2.124683      0.429149     -0.059871
  C       0.686905     -0.088922      0.046222
  S      -0.514159      1.274183     -0.324483
  P      -2.247399      0.107510     -0.434465
  O      -2.236591     -1.014945     -1.413446
  O      -2.474310     -0.337275      1.107787
  O      -3.399558      1.182133     -0.776055
  H       2.983331     -0.973932      1.151346
  H       3.009378     -1.374799     -0.425989
  H       2.289655      0.833734     -1.073114
  H       2.262706      1.269153      0.642511
  H       0.510291     -0.897081     -0.679176
  H       0.478925     -0.465059      1.059101
  H      -3.002028     -1.154584      1.169376
  H      -3.601907      1.799288     -0.051343
16
Coordinates from ORCA-job C:\Users\jabreumiranda\Radioprotection_Pipeline_Project\06_Quantum_DFT_ORCA\REF_AMIFOSTINE_neutral_opt E -1100.333925697821
  N       3.131701     -0.587786      0.213228
  C       2.124844      0.429149     -0.059114
  C       0.687332     -0.090192      0.047230
  S      -0.514413      1.274086     -0.317823
  P      -2.247610      0.107092     -0.432611
  O      -2.232743     -1.018169     -1.408039
  O      -2.481995     -0.333078      1.110288
  O      -3.396806      1.183232     -0.782268
  H       2.985917     -0.976110      1.147639
  H       3.011181     -1.372791     -0.430619
  H       2.287834      0.836489     -1.071573
  H       2.262395      1.267827      0.644961
  H       0.509820     -0.896030     -0.680440
  H       0.480979     -0.469251      1.059364
  H      -3.004619     -1.153604      1.172040
  H      -3.603617      1.799335     -0.057863
16
Coordinates from ORCA-job C:\Users\jabreumiranda\Radioprotection_Pipeline_Project\06_Quantum_DFT_ORCA\REF_AMIFOSTINE_neutral_opt E -1100.333921595196
  N       3.132738     -0.587970      0.210446
  C       2.125465      0.429424     -0.058181
  C       0.688096     -0.090508      0.048136
  S      -0.514254      1.274450     -0.312344
  P      -2.247422      0.106838     -0.430728
  O      -2.229108     -1.021382     -1.402407
  O      -2.489088     -0.328808      1.112481
  O      -3.394806      1.182843     -0.787812
  H       2.987841     -0.979092      1.143830
  H       3.011940     -1.371209     -0.435508
  H       2.287174      0.839480     -1.069735
  H       2.263288      1.266350      0.647902
  H       0.509589     -0.894284     -0.681499
  H       0.482715     -0.472084      1.059537
  H      -3.007626     -1.151888      1.174255
  H      -3.606341      1.798042     -0.063973
16
Coordinates from ORCA-job C:\Users\jabreumiranda\Radioprotection_Pipeline_Project\06_Quantum_DFT_ORCA\REF_AMIFOSTINE_neutral_opt E -1100.333919978026
  N       3.133320     -0.588688      0.207552
  C       2.126141      0.429824     -0.057157
  C       0.688820     -0.090154      0.049146
  S      -0.514033      1.275254     -0.307712
  P      -2.246823      0.106708     -0.428789
  O      -2.224778     -1.024417     -1.396875
  O      -2.495223     -0.324745      1.114499
  O      -3.393375      1.181348     -0.792772
  H       2.989210     -0.982588      1.139884
  H       3.011707     -1.369949     -0.440641
  H       2.286931      0.842553     -1.067760
  H       2.264874      1.264739      0.651098
  H       0.509375     -0.892235     -0.682081
  H       0.484134     -0.473874      1.059893
  H      -3.010616     -1.149790      1.176097
  H      -3.609463      1.796213     -0.069984
16
Coordinates from ORCA-job C:\Users\jabreumiranda\Radioprotection_Pipeline_Project\06_Quantum_DFT_ORCA\REF_AMIFOSTINE_neutral_opt E -1100.333919738581
  N       3.133497     -0.589810      0.204470
  C       2.126717      0.430207     -0.056153
  C       0.689341     -0.089336      0.050487
  S      -0.513872      1.276537     -0.303415
  P      -2.245840      0.106748     -0.426875
  O      -2.219441     -1.027009     -1.391779
  O      -2.500306     -0.321018      1.116356
  O      -3.392208      1.179264     -0.797421
  H       2.990241     -0.986314      1.135826
  H       3.010540     -1.369066     -0.445883
  H       2.286614      0.845463     -1.065861
  H       2.266945      1.263056      0.654214
  H       0.508894     -0.890083     -0.681930
  H       0.485351     -0.474791      1.060733
  H      -3.013187     -1.147645      1.177596
  H      -3.613085      1.793997     -0.075965
16
Coordinates from ORCA-job C:\Users\jabreumiranda\Radioprotection_Pipeline_Project\06_Quantum_DFT_ORCA\REF_AMIFOSTINE_neutral_opt E -1100.333919395811
  N       3.133429     -0.591239      0.200951
  C       2.127207      0.430557     -0.055164
  C       0.689709     -0.088221      0.052281
  S      -0.513808      1.278260     -0.298707
  P      -2.244498      0.106903     -0.424824
  O      -2.212745     -1.029296     -1.386822
  O      -2.504854     -0.317473      1.118257
  O      -3.391074      1.176662     -0.802214
  H       2.991263     -0.990292      1.131384
  H       3.008596     -1.368434     -0.451517
  H       2.285994      0.848377     -1.063992
  H       2.269462      1.261236      0.657324
  H       0.508081     -0.887772     -0.681131
  H       0.486623     -0.475268      1.062120
  H      -3.015874     -1.145295      1.178959
  H      -3.617311      1.791495     -0.082506
16
Coordinates from ORCA-job C:\Users\jabreumiranda\Radioprotection_Pipeline_Project\06_Quantum_DFT_ORCA\REF_AMIFOSTINE_neutral_opt E -1100.333922504053
  N       3.133347     -0.592258      0.198281
  C       2.127457      0.430752     -0.054544
  C       0.689870     -0.087445      0.053811
  S      -0.513886      1.279552     -0.295075
  P      -2.243426      0.107000     -0.423369
  O      -2.207420     -1.030546     -1.383790
  O      -2.507388     -0.315448      1.119594
  O      -3.390332      1.174593     -0.805468
  H       2.992145     -0.992942      1.128164
  H       3.006965     -1.368111     -0.455499
  H       2.285231      0.850337     -1.062806
  H       2.271331      1.259962      0.659327
  H       0.507361     -0.886250     -0.680180
  H       0.487614     -0.475502      1.063440
  H      -3.018309     -1.143377      1.179870
  H      -3.620360      1.789884     -0.087358
16
Coordinates from ORCA-job C:\Users\jabreumiranda\Radioprotection_Pipeline_Project\06_Quantum_DFT_ORCA\REF_AMIFOSTINE_neutral_opt E -1100.333916764546
  N       3.133416     -0.592415      0.197480
  C       2.127457      0.430727     -0.054576
  C       0.689884     -0.087361      0.054504
  S      -0.513981      1.279815     -0.293723
  P      -2.243085      0.106991     -0.423077
  O      -2.205706     -1.030354     -1.383773
  O      -2.507412     -0.315625      1.119813
  O      -3.390163      1.174029     -0.806032
  H       2.992732     -0.993159      1.127422
  H       3.006458     -1.368205     -0.456274
  H       2.284653      0.850538     -1.062838
  H       2.271873      1.259787      0.659365
  H       0.507044     -0.886096     -0.679474
  H       0.488128     -0.475509      1.064194
  H      -3.019943     -1.142584      1.179880
  H      -3.621155      1.789620     -0.088491
