55
Coordinates from ORCA-job C:\Users\jabreumiranda\Radioprotection_Pipeline_Project\06_Quantum_DFT_ORCA\REF_HOECHST33258_neutral_opt
  C          10.89360000000000     -0.10010000000000     -0.49190000000000
  C           9.41490000000000     -0.01430000000000     -0.73580000000000
  C           8.92350000000000      0.17300000000000     -2.03690000000000
  C           7.54950000000000      0.22730000000000     -2.30610000000000
  C           6.69300000000000      0.07420000000000     -1.21550000000000
  N           5.32710000000000      0.07020000000000     -1.10420000000000
  C           4.98450000000000     -0.12760000000000      0.21620000000000
  N           6.08030000000000     -0.24980000000000      0.94740000000000
  C           7.13840000000000     -0.12650000000000      0.08220000000000
  C           8.51720000000000     -0.17860000000000      0.33430000000000
  C           3.60560000000000     -0.19210000000000      0.72020000000000
  C           3.39510000000000     -0.41100000000000      2.09450000000000
  C           2.11350000000000     -0.48640000000000      2.65840000000000
  C           1.04380000000000     -0.33170000000000      1.78030000000000
  N          -0.31450000000000     -0.34440000000000      1.96250000000000
  C          -0.93230000000000     -0.14020000000000      0.74760000000000
  N          -0.01750000000000      0.00010000000000     -0.19840000000000
  C           1.20070000000000     -0.11460000000000      0.42130000000000
  C           2.49180000000000     -0.04220000000000     -0.12530000000000
  C          -2.38610000000000     -0.08980000000000      0.54930000000000
  C          -3.30390000000000     -0.23120000000000      1.59280000000000
  C          -4.68620000000000     -0.17380000000000      1.34680000000000
  C          -5.21300000000000      0.02720000000000      0.06150000000000
  N          -6.57940000000000      0.07090000000000     -0.16350000000000
  C          -7.50440000000000      0.50330000000000      0.89890000000000
  C          -8.75980000000000      1.19190000000000      0.31460000000000
  N          -9.51800000000000      0.40230000000000     -0.67070000000000
  C          -8.62530000000000     -0.47160000000000     -1.45670000000000
  C          -7.14500000000000     -0.03000000000000     -1.51900000000000
  C          -4.27750000000000      0.15950000000000     -0.97320000000000
  C          -2.89520000000000      0.10620000000000     -0.73750000000000
  H          11.14400000000000      0.23970000000000      0.51840000000000
  H          11.23270000000000     -1.13360000000000     -0.61160000000000
  H          11.44200000000000      0.53710000000000     -1.19350000000000
  H           9.62110000000000      0.28110000000000     -2.86630000000000
  H           7.17930000000000      0.37730000000000     -3.31420000000000
  H           4.68090000000000      0.19050000000000     -1.86790000000000
  H           8.86630000000000     -0.34290000000000      1.34810000000000
  H           4.25820000000000     -0.52730000000000      2.75180000000000
  H           1.97620000000000     -0.65590000000000      3.72040000000000
  H          -0.78170000000000     -0.48200000000000      2.84440000000000
  H           2.57920000000000      0.12910000000000     -1.18980000000000
  H          -2.98260000000000     -0.39400000000000      2.61630000000000
  H          -5.35270000000000     -0.31740000000000      2.19330000000000
  H          -7.80450000000000     -0.36990000000000      1.49050000000000
  H          -7.02260000000000      1.22260000000000      1.57240000000000
  H          -8.45450000000000      2.12730000000000     -0.17130000000000
  H          -9.43280000000000      1.47660000000000      1.13140000000000
  H         -10.19320000000000     -0.18830000000000     -0.18620000000000
  H          -8.66480000000000     -1.47830000000000     -1.02050000000000
  H          -9.02620000000000     -0.55090000000000     -2.47280000000000
  H          -6.60540000000000     -0.78100000000000     -2.10850000000000
  H          -7.06090000000000      0.93570000000000     -2.03210000000000
  H          -4.59920000000000      0.33120000000000     -1.99630000000000
  H          -2.21350000000000      0.22320000000000     -1.57880000000000
