16
Coordinates from ORCA-job C:\Users\jabreumiranda\Radioprotection_Pipeline_Project\06_Quantum_DFT_ORCA\REF_AMIFOSTINE_neutral_opt E -1100.333916764546
  N           3.13341577509202     -0.59241470586802      0.19747962078354
  C           2.12745743669613      0.43072661933982     -0.05457611243444
  C           0.68988363766891     -0.08736054119466      0.05450374943507
  S          -0.51398119327255      1.27981454245147     -0.29372323603397
  P          -2.24308486372946      0.10699132028210     -0.42307700026758
  O          -2.20570582470529     -1.03035410658167     -1.38377254234897
  O          -2.50741209576221     -0.31562511056284      1.11981267605088
  O          -3.39016328895024      1.17402945527849     -0.80603221614587
  H           2.99273154156096     -0.99315863799005      1.12742182957574
  H           3.00645824264862     -1.36820489397968     -0.45627371093314
  H           2.28465299767179      0.85053765158253     -1.06283814815092
  H           2.27187272443762      1.25978698263412      0.65936535615357
  H           0.50704417556430     -0.88609626945035     -0.67947370560250
  H           0.48812839017331     -0.47550899421419      1.06419448341017
  H          -3.01994270925550     -1.14258359002497      1.17987961349659
  H          -3.62115494583841      1.78962027829789     -0.08849065698817
