35
Coordinates from ORCA-job C:\Users\jabreumiranda\Radioprotection_Pipeline_Project\06_Quantum_DFT_ORCA\REF_DAPI_neutral_opt
  N          -5.85590000000000      1.91430000000000      1.15290000000000
  C          -5.66410000000000      0.92450000000000      0.34100000000000
  N          -6.76160000000000      0.20440000000000     -0.02580000000000
  C          -4.32080000000000      0.55840000000000     -0.17970000000000
  C          -4.20580000000000      0.06680000000000     -1.48830000000000
  C          -2.96290000000000     -0.29550000000000     -2.02170000000000
  C          -1.85900000000000     -0.14380000000000     -1.18140000000000
  N          -0.52170000000000     -0.39090000000000     -1.35830000000000
  C           0.15050000000000     -0.06880000000000     -0.19960000000000
  N          -0.70780000000000      0.36380000000000      0.70840000000000
  C          -1.94570000000000      0.33290000000000      0.11900000000000
  C          -3.19370000000000      0.69430000000000      0.64330000000000
  C           1.59910000000000     -0.20940000000000     -0.00920000000000
  C           2.12770000000000     -0.11400000000000      1.28820000000000
  C           3.50070000000000     -0.24070000000000      1.52090000000000
  C           4.36910000000000     -0.46650000000000      0.45140000000000
  C           5.83020000000000     -0.58700000000000      0.70240000000000
  N           6.59870000000000     -1.36180000000000      0.00560000000000
  N           6.41810000000000      0.14040000000000      1.69270000000000
  C           3.86190000000000     -0.55360000000000     -0.84810000000000
  C           2.48530000000000     -0.42550000000000     -1.07560000000000
  H          -4.98340000000000      2.41910000000000      1.33650000000000
  H          -7.55200000000000      0.43790000000000      0.56870000000000
  H          -6.62180000000000     -0.79640000000000     -0.09950000000000
  H          -5.09250000000000     -0.01760000000000     -2.11460000000000
  H          -2.87180000000000     -0.66730000000000     -3.03650000000000
  H          -0.10380000000000     -0.76580000000000     -2.19520000000000
  H          -3.26410000000000      1.04460000000000      1.66620000000000
  H           1.46100000000000      0.05710000000000      2.13320000000000
  H           3.87780000000000     -0.18000000000000      2.53880000000000
  H           6.06210000000000     -1.90390000000000     -0.67630000000000
  H           6.05380000000000      1.07510000000000      1.83450000000000
  H           7.42970000000000      0.12500000000000      1.60270000000000
  H           4.52960000000000     -0.69120000000000     -1.69480000000000
  H           2.13330000000000     -0.47870000000000     -2.10160000000000
