20
Coordinates from ORCA-job REF_ASCORBIC_ACID_neutral_opt E -683.973227279423
  O          -1.07566595442058      0.94993296094677     -1.60903360076236
  C          -1.26443877061988      0.33675476154153     -0.42996567409713
  C          -2.32837043762772     -0.43280441194617     -0.11105979993533
  O          -3.43421767096710     -0.76176846211309     -0.80709063822144
  C          -2.16330775424861     -0.89647270995356      1.27185860545854
  O          -2.89538721682771     -1.57981676888153      1.94792137670511
  O          -0.98689582019205     -0.39590647613082      1.75191066041220
  C          -0.30280204927571      0.34954469085789      0.73016434755116
  C           1.05229019096703     -0.31626513628712      0.47812862611127
  O           1.79398515611770     -0.23301171213692      1.67478496727780
  C           1.84875815870701      0.33288670263143     -0.65436910741906
  O           3.13808515541477     -0.25635327069200     -0.60277220669655
  H          -0.45101315648575      1.68889476348674     -1.53238227750690
  H          -3.40631718971138     -0.33575732691266     -1.67917806070457
  H          -0.12928804964304      1.37116217267339      1.11248498961865
  H           0.85171676210038     -1.37353151801369      0.20716616206871
  H           2.71935019755964     -0.35957101934398      1.40025051575524
  H           1.35970865208001      0.15198162490946     -1.62746050283174
  H           1.90403998466178      1.42501489298911     -0.48623587920328
  H           3.76976981241121      0.33498624237522     -1.03512250358033
