36
Coordinates from ORCA-job C:\Users\jabreumiranda\Radioprotection_Pipeline_Project\06_Quantum_DFT_ORCA\REF_TROLOX_neutral_opt
  C           3.75030000000000     -1.39520000000000      0.56800000000000
  C           2.49090000000000     -0.61510000000000      0.28530000000000
  C           1.23220000000000     -1.25230000000000      0.25680000000000
  C           1.11740000000000     -2.74050000000000      0.48640000000000
  C           0.08060000000000     -0.49260000000000     -0.03220000000000
  C           0.16150000000000      0.88790000000000     -0.28740000000000
  C           1.41260000000000      1.54310000000000     -0.19770000000000
  C           2.55050000000000      0.77710000000000      0.10830000000000
  O           3.77760000000000      1.37070000000000      0.25080000000000
  C           1.50540000000000      3.02310000000000     -0.47300000000000
  C          -1.08930000000000      1.66230000000000     -0.61650000000000
  C          -2.22700000000000      0.74490000000000     -1.02650000000000
  C          -2.32650000000000     -0.44990000000000     -0.08120000000000
  C          -2.69950000000000     -0.07840000000000      1.35990000000000
  C          -3.40430000000000     -1.40490000000000     -0.61700000000000
  O          -3.26930000000000     -2.56750000000000     -0.96540000000000
  O          -4.63260000000000     -0.84040000000000     -0.68730000000000
  O          -1.09970000000000     -1.19090000000000     -0.06980000000000
  H           3.73450000000000     -2.36500000000000      0.06010000000000
  H           3.85790000000000     -1.55260000000000      1.64560000000000
  H           4.64480000000000     -0.88240000000000      0.20030000000000
  H           0.11660000000000     -3.03510000000000      0.81700000000000
  H           1.79820000000000     -3.07000000000000      1.27800000000000
  H           1.35050000000000     -3.27800000000000     -0.43800000000000
  H           3.64830000000000      2.20840000000000      0.72310000000000
  H           0.87530000000000      3.57780000000000      0.22980000000000
  H           1.18470000000000      3.23610000000000     -1.49810000000000
  H           2.51930000000000      3.41990000000000     -0.38120000000000
  H          -1.37930000000000      2.25280000000000      0.26070000000000
  H          -0.90940000000000      2.35920000000000     -1.44220000000000
  H          -3.16390000000000      1.31320000000000     -1.06710000000000
  H          -2.03450000000000      0.38280000000000     -2.04640000000000
  H          -3.61670000000000      0.51870000000000      1.39980000000000
  H          -1.90330000000000      0.48150000000000      1.86090000000000
  H          -2.86110000000000     -0.98220000000000      1.95980000000000
  H          -5.19280000000000     -1.56630000000000     -1.03670000000000
