51
Coordinates from ORCA-job C:\Users\jabreumiranda\Radioprotection_Pipeline_Project\06_Quantum_DFT_ORCA\REF_EGCG_neutral_opt
  O           0.43980000000000      0.65200000000000      2.78290000000000
  C           0.52810000000000     -0.20220000000000      1.90400000000000
  O           1.61070000000000     -0.39810000000000      1.06040000000000
  C           2.49910000000000      0.68090000000000      0.98620000000000
  C           2.53000000000000      1.38540000000000     -0.22970000000000
  C           3.39450000000000      2.46100000000000     -0.35270000000000
  O           3.47610000000000      3.18300000000000     -1.49850000000000
  C           4.22530000000000      2.81360000000000      0.70900000000000
  O           5.08140000000000      3.87370000000000      0.59520000000000
  C           4.20760000000000      2.08320000000000      1.89560000000000
  O           5.04200000000000      2.43040000000000      2.92050000000000
  C           3.34710000000000      1.00390000000000      2.04760000000000
  C          -0.61670000000000     -1.13020000000000      1.56270000000000
  C          -0.26290000000000     -2.26280000000000      0.60810000000000
  C          -1.50770000000000     -3.01430000000000      0.23930000000000
  C          -1.44150000000000     -4.33940000000000     -0.21500000000000
  O          -0.21590000000000     -4.94300000000000     -0.30550000000000
  C          -2.59270000000000     -5.03760000000000     -0.57380000000000
  C          -3.82410000000000     -4.40150000000000     -0.48470000000000
  O          -4.93250000000000     -5.11590000000000     -0.82810000000000
  C          -3.91550000000000     -3.07720000000000     -0.06450000000000
  C          -2.75570000000000     -2.38250000000000      0.28770000000000
  O          -2.94770000000000     -1.07890000000000      0.65310000000000
  C          -1.80060000000000     -0.30090000000000      1.03480000000000
  C          -1.45270000000000      0.70430000000000     -0.06540000000000
  C          -1.29810000000000      0.32100000000000     -1.41220000000000
  C          -0.86800000000000      1.25180000000000     -2.36070000000000
  O          -0.69760000000000      0.85650000000000     -3.65700000000000
  C          -0.60640000000000      2.56300000000000     -1.99490000000000
  O          -0.15940000000000      3.44860000000000     -2.93680000000000
  C          -0.79970000000000      2.96610000000000     -0.68040000000000
  O          -0.55520000000000      4.26570000000000     -0.36010000000000
  C          -1.21850000000000      2.05340000000000      0.28440000000000
  H           1.88110000000000      1.08120000000000     -1.04460000000000
  H           2.86520000000000      2.78290000000000     -2.14470000000000
  H           4.90600000000000      4.22260000000000     -0.30590000000000
  H           5.51680000000000      3.21660000000000      2.59100000000000
  H           3.33260000000000      0.44060000000000      2.97490000000000
  H          -0.92310000000000     -1.60270000000000      2.51140000000000
  H           0.21160000000000     -1.89910000000000     -0.31320000000000
  H           0.45950000000000     -2.92800000000000      1.10420000000000
  H          -0.33660000000000     -5.82500000000000     -0.69330000000000
  H          -2.55130000000000     -6.06590000000000     -0.91680000000000
  H          -5.72300000000000     -4.60370000000000     -0.57530000000000
  H          -4.87230000000000     -2.57010000000000     -0.01870000000000
  H          -2.17080000000000      0.29110000000000      1.88630000000000
  H          -1.49800000000000     -0.69880000000000     -1.73120000000000
  H          -0.48800000000000      1.68030000000000     -4.14820000000000
  H          -0.02950000000000      4.28280000000000     -2.42030000000000
  H          -1.16230000000000      4.51110000000000      0.37290000000000
  H          -1.33060000000000      2.37140000000000      1.31950000000000
