20
Coordinates from ORCA-job REF_ASCORBIC_ACID_neutral_opt E -683.961752318995
  O      -1.098200      1.163700     -1.458100
  C      -1.249300      0.358000     -0.356900
  C      -2.270000     -0.471100     -0.172800
  O      -3.295700     -0.711300     -1.040800
  C      -2.135400     -1.024100      1.186900
  O      -2.870800     -1.835700      1.716900
  O      -1.045500     -0.444000      1.774400
  C      -0.341500      0.379600      0.816500
  C       1.062400     -0.226700      0.611800
  O       1.902400      0.183200      1.710500
  C       1.769800      0.208200     -0.675100
  O       3.095700     -0.330100     -0.660700
  H      -0.586000      1.955200     -1.205100
  H      -3.112400     -0.170800     -1.831400
  H      -0.276500      1.387100      1.243000
  H       1.023000     -1.321900      0.661500
  H       2.795700     -0.144000      1.476300
  H       1.258400     -0.167100     -1.565600
  H       1.859000      1.298000     -0.725700
  H       3.514900     -0.086300     -1.505600
20
Coordinates from ORCA-job REF_ASCORBIC_ACID_neutral_opt E -683.969188080996
  O      -1.048595      1.091140     -1.505170
  C      -1.229592      0.358857     -0.377689
  C      -2.269093     -0.463495     -0.163967
  O      -3.306723     -0.727561     -0.990561
  C      -2.136353     -1.004095      1.200382
  O      -2.872151     -1.773283      1.774827
  O      -1.026813     -0.453404      1.769233
  C      -0.319653      0.367479      0.807257
  C       1.064942     -0.237355      0.588349
  O       1.866792      0.104630      1.725420
  C       1.761541      0.258846     -0.669710
  O       3.071251     -0.308410     -0.642622
  H      -0.500497      1.868295     -1.306840
  H      -3.157510     -0.203076     -1.796027
  H      -0.221749      1.378132      1.237895
  H       0.976113     -1.336922      0.538983
  H       2.762392     -0.189653      1.494362
  H       1.226973     -0.062716     -1.579431
  H       1.833717      1.361845     -0.655317
  H       3.525009     -0.029355     -1.449373
20
Coordinates from ORCA-job REF_ASCORBIC_ACID_neutral_opt E -683.971846609994
  O      -1.077436      1.039744     -1.551776
  C      -1.245755      0.364657     -0.404060
  C      -2.289710     -0.454885     -0.146948
  O      -3.350689     -0.757572     -0.916492
  C      -2.144221     -0.967787      1.222569
  O      -2.859152     -1.715091      1.844339
  O      -1.007189     -0.440154      1.754510
  C      -0.309996      0.365463      0.776028
  C       1.068524     -0.247715      0.548123
  O       1.820136     -0.005516      1.726122
  C       1.811331      0.307144     -0.658157
  O       3.096617     -0.298096     -0.606803
  H      -0.508583      1.814343     -1.418421
  H      -3.257833     -0.264198     -1.748841
  H      -0.179112      1.375370      1.204997
  H       0.926995     -1.335082      0.387786
  H       2.725556     -0.277561      1.511103
  H       1.283288      0.060201     -1.595962
  H       1.884557      1.411203     -0.571151
  H       3.612674      0.025431     -1.356966
20
Coordinates from ORCA-job REF_ASCORBIC_ACID_neutral_opt E -683.972458660534
  O      -1.075436      0.989551     -1.582594
  C      -1.252807      0.353887     -0.416193
  C      -2.303188     -0.450681     -0.132456
  O      -3.381831     -0.770646     -0.871514
  C      -2.148440     -0.948226      1.239376
  O      -2.878989     -1.650617      1.896898
  O      -0.998802     -0.424108      1.752761
  C      -0.308830      0.360982      0.759173
  C       1.065593     -0.263008      0.523535
  O       1.797074     -0.096442      1.719322
  C       1.836752      0.341139     -0.645065
  O       3.113966     -0.272871     -0.598147
  H      -0.482075      1.752255     -1.487831
  H      -3.322062     -0.302494     -1.720854
  H      -0.162166      1.374493      1.173170
  H       0.899688     -1.336009      0.295264
  H       2.710683     -0.343108      1.501839
  H       1.318056      0.144097     -1.599454
  H       1.908576      1.439500     -0.507698
  H       3.664238      0.102209     -1.299531
20
Coordinates from ORCA-job REF_ASCORBIC_ACID_neutral_opt E -683.972725407951
  O      -1.069570      0.945410     -1.607899
  C      -1.260580      0.344815     -0.424522
  C      -2.319061     -0.438910     -0.115952
  O      -3.410592     -0.781506     -0.829559
  C      -2.167684     -0.899735      1.267199
  O      -2.887646     -1.605078      1.935590
  O      -0.989900     -0.405026      1.752856
  C      -0.308592      0.357721      0.743781
  C       1.059177     -0.282994      0.496943
  O       1.778676     -0.190808      1.703031
  C       1.856468      0.368668     -0.632417
  O       3.128841     -0.248538     -0.593084
  H      -0.450731      1.691172     -1.543559
  H      -3.374828     -0.353447     -1.700395
  H      -0.146859      1.375509      1.140550
  H       0.873001     -1.339727      0.211052
  H       2.700656     -0.399626      1.476809
  H       1.350172      0.216404     -1.601450
  H       1.926719      1.459162     -0.448232
  H       3.712336      0.186433     -1.230741
20
Coordinates from ORCA-job REF_ASCORBIC_ACID_neutral_opt E -683.972948930732
  O      -1.076793      0.946484     -1.610826
  C      -1.263776      0.338062     -0.429324
  C      -2.322700     -0.440781     -0.115445
  O      -3.422878     -0.778542     -0.818741
  C      -2.161596     -0.904898      1.265828
  O      -2.890577     -1.593026      1.941682
  O      -0.987552     -0.398638      1.750258
  C      -0.308601      0.356556      0.735327
  C       1.057474     -0.291355      0.489508
  O       1.777684     -0.207334      1.697430
  C       1.862147      0.365729     -0.631681
  O       3.136345     -0.247667     -0.586994
  H      -0.457202      1.690588     -1.542226
  H      -3.396482     -0.351422     -1.690161
  H      -0.147117      1.377914      1.123700
  H       0.871637     -1.347930      0.204002
  H       2.702730     -0.393320      1.464554
  H       1.365416      0.213329     -1.605670
  H       1.931066      1.455390     -0.444089
  H       3.730775      0.210761     -1.197132
20
Coordinates from ORCA-job REF_ASCORBIC_ACID_neutral_opt E -683.973067447803
  O      -1.073956      0.951628     -1.608367
  C      -1.263217      0.334825     -0.430964
  C      -2.324006     -0.439869     -0.116413
  O      -3.427662     -0.774310     -0.814437
  C      -2.160206     -0.905769      1.265167
  O      -2.893013     -1.589630      1.939877
  O      -0.988466     -0.395728      1.750662
  C      -0.307738      0.354744      0.732842
  C       1.054769     -0.300119      0.486372
  O       1.782430     -0.216535      1.692089
  C       1.857874      0.356804     -0.635067
  O       3.135420     -0.251908     -0.588518
  H      -0.450640      1.691536     -1.530503
  H      -3.404266     -0.348475     -1.686582
  H      -0.145599      1.378611      1.114479
  H       0.867895     -1.357882      0.208503
  H       2.709818     -0.370408      1.444070
  H       1.365034      0.198591     -1.610406
  H       1.925321      1.446438     -0.449378
  H       3.740207      0.237354     -1.163426
20
Coordinates from ORCA-job REF_ASCORBIC_ACID_neutral_opt E -683.973151869095
  O      -1.074866      0.956550     -1.608057
  C      -1.264553      0.334693     -0.433331
  C      -2.326521     -0.437101     -0.115646
  O      -3.433667     -0.771415     -0.806375
  C      -2.159730     -0.901323      1.267415
  O      -2.891869     -1.585054      1.942069
  O      -0.987278     -0.392216      1.750371
  C      -0.305482      0.353342      0.728606
  C       1.051818     -0.310046      0.480033
  O       1.785699     -0.232725      1.683866
  C       1.855294      0.346299     -0.641111
  O       3.138123     -0.253752     -0.586597
  H      -0.447944      1.692603     -1.524797
  H      -3.414601     -0.348644     -1.680100
  H      -0.138996      1.378455      1.104995
  H       0.858426     -1.367041      0.204808
  H       2.713997     -0.355156      1.420163
  H       1.369430      0.179923     -1.618673
  H       1.916259      1.436599     -0.458882
  H       3.756460      0.275910     -1.108758
20
Coordinates from ORCA-job REF_ASCORBIC_ACID_neutral_opt E -683.973193742202
  O      -1.071766      0.959194     -1.605989
  C      -1.263682      0.337174     -0.431889
  C      -2.326396     -0.434698     -0.115428
  O      -3.432462     -0.768527     -0.807554
  C      -2.161192     -0.899014      1.268316
  O      -2.893060     -1.584867      1.941222
  O      -0.988271     -0.393565      1.751764
  C      -0.303960      0.352071      0.730483
  C       1.050974     -0.314071      0.480382
  O       1.790410     -0.234001      1.680778
  C       1.850132      0.337738     -0.647062
  O       3.138019     -0.253520     -0.590116
  H      -0.443750      1.694189     -1.520675
  H      -3.410766     -0.344979     -1.680941
  H      -0.134505      1.376073      1.108310
  H       0.853166     -1.371531      0.209852
  H       2.717551     -0.348109      1.407741
  H       1.364807      0.160986     -1.622890
  H       1.905168      1.429528     -0.473092
  H       3.759583      0.299830     -1.083212
20
Coordinates from ORCA-job REF_ASCORBIC_ACID_neutral_opt E -683.973211203872
  O      -1.071624      0.957844     -1.606176
  C      -1.263684      0.339133     -0.430582
  C      -2.326731     -0.432845     -0.114021
  O      -3.432275     -0.765613     -0.807904
  C      -2.162570     -0.896619      1.269793
  O      -2.894170     -1.582995      1.943076
  O      -0.988198     -0.395214      1.752292
  C      -0.302714      0.350754      0.731465
  C       1.051110     -0.316664      0.480021
  O       1.793380     -0.234904      1.677557
  C       1.847771      0.332049     -0.652069
  O       3.139070     -0.252472     -0.593595
  H      -0.444440      1.693922     -1.523282
  H      -3.407947     -0.340782     -1.680652
  H      -0.130046      1.372935      1.112540
  H       0.848990     -1.373902      0.210613
  H       2.719445     -0.349437      1.399824
  H       1.362531      0.147624     -1.626281
  H       1.898389      1.424965     -0.484903
  H       3.763711      0.322121     -1.057717
20
Coordinates from ORCA-job REF_ASCORBIC_ACID_neutral_opt E -683.973221729129
  O      -1.072504      0.954249     -1.607154
  C      -1.263793      0.338932     -0.429712
  C      -2.327196     -0.432398     -0.112621
  O      -3.432620     -0.763241     -0.808267
  C      -2.163402     -0.896111      1.270782
  O      -2.895552     -1.581310      1.945083
  O      -0.987999     -0.396410      1.752415
  C      -0.302478      0.349783      0.731755
  C       1.051712     -0.317191      0.479706
  O       1.794761     -0.233926      1.675719
  C       1.847341      0.330729     -0.654224
  O       3.139059     -0.253043     -0.597540
  H      -0.446776      1.691983     -1.527421
  H      -3.405999     -0.337091     -1.680337
  H      -0.128558      1.370923      1.114972
  H       0.848610     -1.374343      0.210040
  H       2.720294     -0.352697      1.397580
  H       1.360692      0.144742     -1.627397
  H       1.898178      1.423770     -0.489209
  H       3.766231      0.332550     -1.044170
20
Coordinates from ORCA-job REF_ASCORBIC_ACID_neutral_opt E -683.973220730066
  O      -1.074306      0.951174     -1.608347
  C      -1.264169      0.337789     -0.429624
  C      -2.327841     -0.432583     -0.111527
  O      -3.433532     -0.761923     -0.807786
  C      -2.163526     -0.896224      1.271512
  O      -2.895946     -1.580085      1.946926
  O      -0.987450     -0.396480      1.752173
  C      -0.302619      0.349418      0.731035
  C       1.052158     -0.316952      0.478876
  O       1.794738     -0.233503      1.674788
  C       1.848087      0.331496     -0.654698
  O       3.138910     -0.254322     -0.600266
  H      -0.449760      1.690161     -1.530919
  H      -3.405815     -0.335288     -1.679585
  H      -0.128543      1.370444      1.114553
  H       0.849816     -1.374054      0.208334
  H       2.720127     -0.356531      1.398242
  H       1.360318      0.147199     -1.627698
  H       1.900840      1.424178     -0.488900
  H       3.768514      0.335988     -1.037090
20
Coordinates from ORCA-job REF_ASCORBIC_ACID_neutral_opt E -683.973225888773
  O      -1.075194      0.950069     -1.608835
  C      -1.264318      0.337042     -0.429762
  C      -2.328167     -0.432768     -0.111153
  O      -3.433941     -0.761652     -0.807456
  C      -2.163418     -0.896459      1.271761
  O      -2.895755     -1.579843      1.947616
  O      -0.987122     -0.396200      1.752029
  C      -0.302767      0.349445      0.730522
  C       1.052285     -0.316527      0.478435
  O       1.794331     -0.233105      1.674722
  C       1.848519      0.332394     -0.654512
  O       3.138415     -0.255550     -0.601879
  H      -0.450859      1.689298     -1.532079
  H      -3.405924     -0.335200     -1.679331
  H      -0.129009      1.370770      1.113466
  H       0.851041     -1.373723      0.207590
  H       2.719707     -0.358460      1.399486
  H       1.359919      0.150112     -1.627538
  H       1.902914      1.424729     -0.487370
  H       3.769342      0.335528     -1.035712
20
Coordinates from ORCA-job REF_ASCORBIC_ACID_neutral_opt E -683.973227279423
  O      -1.075666      0.949933     -1.609034
  C      -1.264439      0.336755     -0.429966
  C      -2.328370     -0.432804     -0.111060
  O      -3.434218     -0.761768     -0.807091
  C      -2.163308     -0.896473      1.271859
  O      -2.895387     -1.579817      1.947921
  O      -0.986896     -0.395906      1.751911
  C      -0.302802      0.349545      0.730164
  C       1.052290     -0.316265      0.478129
  O       1.793985     -0.233012      1.674785
  C       1.848758      0.332887     -0.654369
  O       3.138085     -0.256353     -0.602772
  H      -0.451013      1.688895     -1.532382
  H      -3.406317     -0.335757     -1.679178
  H      -0.129288      1.371162      1.112485
  H       0.851717     -1.373532      0.207166
  H       2.719350     -0.359571      1.400251
  H       1.359709      0.151982     -1.627461
  H       1.904040      1.425015     -0.486236
  H       3.769770      0.334986     -1.035123
