19
Coordinates from ORCA-job C:\Users\jabreumiranda\Radioprotection_Pipeline_Project\06_Quantum_DFT_ORCA\REF_WR1065_neutral_opt
  N           2.43680000000000     -0.88340000000000      0.59530000000000
  C           1.70080000000000     -0.45950000000000     -0.59290000000000
  C           1.26050000000000      1.01360000000000     -0.57380000000000
  S           0.37490000000000      1.59440000000000      0.92080000000000
  C          -0.94350000000000      0.34090000000000      1.06680000000000
  C          -1.92310000000000      0.35780000000000     -0.11180000000000
  N          -3.01260000000000     -0.60680000000000      0.06190000000000
  H           3.16320000000000     -0.20370000000000      0.81840000000000
  H           2.90490000000000     -1.77030000000000      0.41710000000000
  H           2.33760000000000     -0.61230000000000     -1.47210000000000
  H           0.83220000000000     -1.11320000000000     -0.72280000000000
  H           2.14970000000000      1.64820000000000     -0.66480000000000
  H           0.64020000000000      1.22540000000000     -1.45090000000000
  H          -0.49800000000000     -0.64990000000000      1.19930000000000
  H          -1.48610000000000      0.56490000000000      1.99240000000000
  H          -1.41080000000000      0.11430000000000     -1.04750000000000
  H          -2.36250000000000      1.35470000000000     -0.22900000000000
  H          -2.62650000000000     -1.53780000000000      0.21760000000000
  H          -3.53770000000000     -0.37730000000000      0.90600000000000
